
##############################################################################
###                                                                        ###
###           Full Paper (Acta Crystallographica Section C)                ###
###                                                                        ###
##############################################################################
#                                                                            #
# This CIF contains the data in a paper accepted for publication in Acta     #
# Crystallographica Section C. It conforms to the editorial and technical    #
# requirements of Notes for Authors for Section C, and has been peer         #
# reviewed under the auspices of the IUCr Commission on Journals.            #
#                                                                            #
# Full details of the Crystallographic Information File format               #
# are given in the paper "The Crystallographic Information File (CIF):       #
# a New Standard Archive File for Crystallography" by S. R. Hall, F. H.      #
# Allen and I. D. Brown [Acta Cryst. (1991), A47, 655-685].                  #
#                                                                            #
# The current version of the core CIF dictionary is obtainable from          #
# ftp://ftp.iucr.org/pub/cif_core.dic. The current version number is 2.1.    #
#                                                                            #
# Software is freely available for graphical display of the structure(s) in  #
# this CIF.  For information consult the CIF home page http://www.iucr.org/  #
# cif/home.html                                                              #
#                                                                            #
#            Copyright International Union of Crystallography                #
#                                                                            #
##############################################################################
data_global
_journal_date_recd_electronic     2002-06-20
_journal_date_accepted     2002-09-05
_journal_name_full     'Acta Crystallographica, Section C'
_journal_year     2002
_journal_volume     58
_journal_issue     11
_journal_page_first     o645
_journal_page_last     o648
_journal_paper_category     FO
_publ_contact_author_name     'Greig Chisholm'
_publ_contact_author_address
;
Ciba Specialty Chemicals PLC
Hawkhead Road
Paisley PA2 7BG
Scotland
;
_publ_contact_author_email     'greig.chisholm@cibasc.com'
_publ_contact_author_fax     '0141 847 5199'
_publ_contact_author_phone     '0141 887 1144 ext 5259'
_publ_section_title
;
Structural motifs in acetoacetanilides: the effect of a fluorine substituent
;
loop_
    _publ_author_name
    _publ_author_address
    'Chisholm, Greig'
;
Ciba Specialty Chemicals PLC
Hawkhead Road
Paisley PA2 7BG
Scotland
;
    'Kennedy, Alan R.'
;
Department of Pure and Applied Chemistry
University of Strathclyde
Glasgow G1 1XL
Scotland
;
    'Beaton, Laura'
;
Ciba Specialty Chemicals PLC
Hawkhead Road
Paisley PA2 7BG
Scotland
;
    'Brook, Eve'
;
Department of Pure and Applied Chemistry
University of Strathclyde
Glasgow G1 1XL
Scotland
;
data_II
_audit_creation_method     SHELXL97
_chemical_name_systematic
;
2'-fluoroacetoacetanilide
;
_chemical_name_common     ?
_chemical_formula_moiety     'C10 H10 F N O2'
_chemical_formula_sum     'C10 H10 F N O2'
_chemical_formula_weight     195.19
_symmetry_cell_setting     monoclinic
_symmetry_space_group_name_H-M     'P 21/c'
_symmetry_space_group_name_Hall     '-P 2ybc'
loop_
    _symmetry_equiv_pos_as_xyz
    'x, y, z'
    '-x, y+1/2, -z+1/2'
    '-x, -y, -z'
    'x, -y-1/2, z-1/2'
_cell_length_a     7.3215(2)
_cell_length_b     12.0480(3)
_cell_length_c     10.5082(3)
_cell_angle_alpha     90
_cell_angle_beta     98.8770(10)
_cell_angle_gamma     90
_cell_volume     915.82(4)
_cell_formula_units_Z     4
_cell_measurement_reflns_used     2169
_cell_measurement_theta_min     1.70
_cell_measurement_theta_max     27.48
_cell_measurement_temperature     150(2)
_exptl_crystal_description     'cut prism'
_exptl_crystal_colour     colourless
_exptl_crystal_size_max     0.35
_exptl_crystal_size_mid     0.30
_exptl_crystal_size_min     0.20
_exptl_crystal_density_diffrn     1.416
_exptl_crystal_density_meas     'not measured'
_exptl_crystal_density_method     'not measured'
_exptl_crystal_F_000     408
_exptl_absorpt_coefficient_mu     0.112
_exptl_absorpt_correction_type     none
_exptl_absorpt_correction_T_min     ?
_exptl_absorpt_correction_T_max     ?
_exptl_special_details
;
 ?
;
_diffrn_ambient_temperature     150(2)
_diffrn_radiation_type     MoK\a
_diffrn_radiation_wavelength     0.71073
_diffrn_radiation_source     'fine-focus sealed tube'
_diffrn_radiation_monochromator     graphite
_diffrn_measurement_device_type     'Nonius KappaCCD area-detector'
_diffrn_measurement_method     '\f and \w'
_diffrn_detector_area_resol_mean     ?
_diffrn_reflns_number     3637
_diffrn_reflns_av_R_equivalents     0.015
_diffrn_reflns_av_sigmaI/netI     0.022
_diffrn_reflns_theta_min     2.82
_diffrn_reflns_theta_max     27.46
_diffrn_reflns_theta_full     27.46
_diffrn_measured_fraction_theta_max     0.948
_diffrn_measured_fraction_theta_full     0.948
_diffrn_reflns_limit_h_min     0
_diffrn_reflns_limit_h_max     9
_diffrn_reflns_limit_k_min     -15
_diffrn_reflns_limit_k_max     14
_diffrn_reflns_limit_l_min     -13
_diffrn_reflns_limit_l_max     13
_diffrn_standards_number     0
_diffrn_standards_interval_count     ?
_diffrn_standards_interval_time     ?
_diffrn_standards_decay_%     0
_refine_special_details
;
 Refinement of F^2^ against ALL reflections.  The weighted R-factor wR and
 goodness of fit S are based on F^2^, conventional R-factors R are based
 on F, with F set to zero for negative F^2^. The threshold expression of
 F^2^ > 2sigma(F^2^) is used only for calculating R-factors(gt) etc. and is
 not relevant to the choice of reflections for refinement.  R-factors based
 on F^2^ are statistically about twice as large as those based on F, and R-
 factors based on ALL data will be even larger.
;
_reflns_number_total     2092
_reflns_number_gt     1812
_reflns_threshold_expression     I>2\s(I)
_refine_ls_structure_factor_coef     Fsqd
_refine_ls_matrix_type     full
_refine_ls_R_factor_all     0.041
_refine_ls_R_factor_gt     0.033
_refine_ls_wR_factor_gt     0.090
_refine_ls_wR_factor_ref     0.094
_refine_ls_goodness_of_fit_ref     1.057
_refine_ls_restrained_S_all     1.057
_refine_ls_number_reflns     2092
_refine_ls_number_parameters     132
_refine_ls_number_restraints     0
_refine_ls_hydrogen_treatment     mixed
_refine_ls_weighting_scheme     calc
_refine_ls_weighting_details
            'w = 1/[\s^2^(Fo^2^)+(0.0485P)^2^+0.2047P] where P=(Fo^2^+2Fc^2^)/3'
_atom_sites_solution_hydrogens     geom
_atom_sites_solution_primary     direct
_atom_sites_solution_secondary     difmap
_refine_ls_shift/su_max     <0.001
_refine_ls_shift/su_mean     0.000
_refine_diff_density_max     0.23
_refine_diff_density_min     -0.18
_refine_ls_extinction_method     none
_refine_ls_extinction_coef     ?
loop_
    _atom_type_symbol
    _atom_type_description
    _atom_type_scat_dispersion_real
    _atom_type_scat_dispersion_imag
    _atom_type_scat_source
    'F' 'F' 0.0171 0.0103
                         'International Tables Vol C Tables 4.2.6.8 and 6.1.1.4'
    'O' 'O' 0.0106 0.0060
                         'International Tables Vol C Tables 4.2.6.8 and 6.1.1.4'
    'N' 'N' 0.0061 0.0033
                         'International Tables Vol C Tables 4.2.6.8 and 6.1.1.4'
    'C' 'C' 0.0033 0.0016
                         'International Tables Vol C Tables 4.2.6.8 and 6.1.1.4'
    'H' 'H' 0.0000 0.0000
                         'International Tables Vol C Tables 4.2.6.8 and 6.1.1.4'
_computing_data_collection
                   'DENZO (Otwinowski & Minor, 1997) and COLLECT (Nonius, 1998)'
_computing_cell_refinement     'DENZO and COLLECT'
_computing_data_reduction     'DENZO and COLLECT'
_computing_structure_solution     'SHELXS97 (Sheldrick, 1997)'
_computing_structure_refinement     'SHELXL97 (Sheldrick, 1997)'
_computing_molecular_graphics     'ORTEPII (Johnson, 1976)'
_computing_publication_material     'SHELXL97'
loop_
    _atom_site_label
    _atom_site_fract_x
    _atom_site_fract_y
    _atom_site_fract_z
    _atom_site_U_iso_or_equiv
    _atom_site_adp_type
    _atom_site_calc_flag
    _atom_site_refinement_flags
    _atom_site_occupancy
    _atom_site_disorder_assembly
    _atom_site_disorder_group
    _atom_site_type_symbol
    F1 0.41992(9) 0.03293(6) 0.70364(6) 0.03238(19) Uani d . 1 . . F
    O1 0.30657(11) -0.22681(7) 0.57662(7) 0.0297(2) Uani d . 1 . . O
    O2 0.08600(13) -0.01994(7) 0.26742(8) 0.0392(2) Uani d . 1 . . O
    N1 0.23391(12) -0.02392(8) 0.47517(8) 0.0230(2) Uani d . 1 . . N
    H1N 0.2760(18) -0.0721(13) 0.5359(13) 0.035(4) Uiso d . 1 . . H
    C1 0.23139(18) -0.38998(10) 0.45386(13) 0.0368(3) Uani d . 1 . . C
    H1A 0.3195 -0.4259 0.5210 0.044 Uiso calc PR 0.50 . . H
    H1B 0.2639 -0.4076 0.3691 0.044 Uiso calc PR 0.50 . . H
    H1C 0.1064 -0.4170 0.4586 0.044 Uiso calc PR 0.50 . . H
    H1D 0.1403 -0.4078 0.3781 0.044 Uiso calc PR 0.50 . . H
    H1E 0.1960 -0.4260 0.5300 0.044 Uiso calc PR 0.50 . . H
    H1F 0.3535 -0.4167 0.4405 0.044 Uiso calc PR 0.50 . . H
    C2 0.23817(14) -0.26668(9) 0.47362(10) 0.0247(2) Uani d . 1 . . C
    C3 0.15356(14) -0.19743(9) 0.35946(10) 0.0237(2) Uani d . 1 . . C
    H3A 0.0227 -0.2206 0.3379 0.028 Uiso calc R 1 . . H
    H3B 0.2151 -0.2197 0.2859 0.028 Uiso calc R 1 . . H
    C4 0.15473(14) -0.07137(9) 0.36299(10) 0.0238(2) Uani d . 1 . . C
    C5 0.25128(13) 0.08929(9) 0.50507(10) 0.0216(2) Uani d . 1 . . C
    C6 0.17827(14) 0.17620(9) 0.42532(10) 0.0254(2) Uani d . 1 . . C
    H6 0.1116 0.1606 0.3424 0.030 Uiso calc R 1 . . H
    C7 0.20264(15) 0.28577(10) 0.46671(11) 0.0291(3) Uani d . 1 . . C
    H7 0.1529 0.3443 0.4114 0.035 Uiso calc R 1 . . H
    C8 0.29858(15) 0.31058(10) 0.58765(11) 0.0294(3) Uani d . 1 . . C
    H8 0.3135 0.3856 0.6153 0.035 Uiso calc R 1 . . H
    C9 0.37292(14) 0.22494(10) 0.66822(10) 0.0274(3) Uani d . 1 . . C
    H9 0.4397 0.2405 0.7512 0.033 Uiso calc R 1 . . H
    C10 0.34798(13) 0.11756(9) 0.62566(10) 0.0238(2) Uani d . 1 . . C
loop_
    _atom_site_aniso_label
    _atom_site_aniso_U_11
    _atom_site_aniso_U_22
    _atom_site_aniso_U_33
    _atom_site_aniso_U_12
    _atom_site_aniso_U_13
    _atom_site_aniso_U_23
    F1 0.0349(4) 0.0359(4) 0.0231(3) 0.0037(3) -0.0056(3) 0.0024(3)
    O1 0.0346(4) 0.0300(4) 0.0222(4) 0.0020(3) -0.0026(3) 0.0014(3)
    O2 0.0557(6) 0.0326(5) 0.0236(4) 0.0013(4) -0.0118(4) 0.0025(3)
    N1 0.0255(4) 0.0243(5) 0.0180(4) 0.0007(3) -0.0001(3) 0.0017(4)
    C1 0.0407(7) 0.0281(6) 0.0391(7) 0.0003(5) -0.0014(5) -0.0016(5)
    C2 0.0220(5) 0.0269(5) 0.0250(5) 0.0009(4) 0.0031(4) 0.0003(4)
    C3 0.0228(5) 0.0282(6) 0.0194(5) -0.0005(4) 0.0013(4) -0.0022(4)
    C4 0.0225(5) 0.0297(6) 0.0189(5) -0.0003(4) 0.0024(4) 0.0001(4)
    C5 0.0194(4) 0.0260(5) 0.0200(5) -0.0011(4) 0.0047(4) -0.0004(4)
    C6 0.0269(5) 0.0291(6) 0.0200(5) 0.0003(4) 0.0033(4) 0.0021(4)
    C7 0.0321(6) 0.0278(6) 0.0286(6) 0.0013(4) 0.0085(5) 0.0034(4)
    C8 0.0292(5) 0.0284(6) 0.0323(6) -0.0042(4) 0.0101(5) -0.0045(5)
    C9 0.0224(5) 0.0358(6) 0.0242(5) -0.0039(4) 0.0043(4) -0.0063(4)
    C10 0.0198(5) 0.0311(6) 0.0201(5) 0.0008(4) 0.0022(4) 0.0017(4)
_geom_special_details
;
 All esds (except the esd in the dihedral angle between two l.s. planes)
 are estimated using the full covariance matrix.  The cell esds are taken
 into account individually in the estimation of esds in distances, angles
 and torsion angles; correlations between esds in cell parameters are only
 used when they are defined by crystal symmetry.  An approximate (isotropic)
 treatment of cell esds is used for estimating esds involving l.s. planes.
;
loop_
    _geom_bond_atom_site_label_1
    _geom_bond_atom_site_label_2
    _geom_bond_site_symmetry_2
    _geom_bond_distance
    _geom_bond_publ_flag
    F1 C10 . 1.3621(12) y
    O1 C2 . 1.2189(13) y
    O2 C4 . 1.2205(13) y
    N1 C4 . 1.3571(13) y
    N1 C5 . 1.4011(14) y
    N1 H1N . 0.883(15) ?
    C1 C2 . 1.4997(16) ?
    C1 H1A . 0.9800 ?
    C1 H1B . 0.9800 ?
    C1 H1C . 0.9800 ?
    C1 H1D . 0.9800 ?
    C1 H1E . 0.9800 ?
    C1 H1F . 0.9800 ?
    C2 C3 . 1.5131(14) ?
    C3 C4 . 1.5191(15) ?
    C3 H3A . 0.9900 ?
    C3 H3B . 0.9900 ?
    C5 C10 . 1.3951(14) ?
    C5 C6 . 1.3950(15) ?
    C6 C7 . 1.3927(16) ?
    C6 H6 . 0.9500 ?
    C7 C8 . 1.3865(16) ?
    C7 H7 . 0.9500 ?
    C8 C9 . 1.3912(17) ?
    C8 H8 . 0.9500 ?
    C9 C10 . 1.3718(16) ?
    C9 H9 . 0.9500 ?
loop_
    _geom_angle_atom_site_label_1
    _geom_angle_atom_site_label_2
    _geom_angle_atom_site_label_3
    _geom_angle_site_symmetry_1
    _geom_angle_site_symmetry_3
    _geom_angle
    _geom_angle_publ_flag
    C4 N1 C5 . . 128.08(9) y
    C4 N1 H1N . . 113.9(9) ?
    C5 N1 H1N . . 118.0(9) ?
    C2 C1 H1A . . 109.5 ?
    C2 C1 H1B . . 109.5 ?
    H1A C1 H1B . . 109.5 ?
    C2 C1 H1C . . 109.5 ?
    H1A C1 H1C . . 109.5 ?
    H1B C1 H1C . . 109.5 ?
    C2 C1 H1D . . 109.5 ?
    H1A C1 H1D . . 141.1 ?
    H1B C1 H1D . . 56.3 ?
    H1C C1 H1D . . 56.3 ?
    C2 C1 H1E . . 109.5 ?
    H1A C1 H1E . . 56.3 ?
    H1B C1 H1E . . 141.1 ?
    H1C C1 H1E . . 56.3 ?
    H1D C1 H1E . . 109.5 ?
    C2 C1 H1F . . 109.5 ?
    H1A C1 H1F . . 56.3 ?
    H1B C1 H1F . . 56.3 ?
    H1C C1 H1F . . 141.1 ?
    H1D C1 H1F . . 109.5 ?
    H1E C1 H1F . . 109.5 ?
    O1 C2 C1 . . 120.90(10) ?
    O1 C2 C3 . . 123.27(10) ?
    C1 C2 C3 . . 115.83(9) ?
    C2 C3 C4 . . 122.13(9) y
    C2 C3 H3A . . 106.8 ?
    C4 C3 H3A . . 106.8 ?
    C2 C3 H3B . . 106.8 ?
    C4 C3 H3B . . 106.8 ?
    H3A C3 H3B . . 106.6 ?
    O2 C4 N1 . . 124.57(11) ?
    O2 C4 C3 . . 119.17(10) ?
    N1 C4 C3 . . 116.26(9) y
    C10 C5 C6 . . 117.14(10) y
    C10 C5 N1 . . 117.20(10) y
    C6 C5 N1 . . 125.66(10) y
    C7 C6 C5 . . 120.34(10) ?
    C7 C6 H6 . . 119.8 ?
    C5 C6 H6 . . 119.8 ?
    C8 C7 C6 . . 120.86(11) ?
    C8 C7 H7 . . 119.6 ?
    C6 C7 H7 . . 119.6 ?
    C7 C8 C9 . . 119.55(11) ?
    C7 C8 H8 . . 120.2 ?
    C9 C8 H8 . . 120.2 ?
    C10 C9 C8 . . 118.76(10) ?
    C10 C9 H9 . . 120.6 ?
    C8 C9 H9 . . 120.6 ?
    F1 C10 C9 . . 119.35(9) ?
    F1 C10 C5 . . 117.30(10) ?
    C9 C10 C5 . . 123.35(10) y
loop_
    _geom_torsion_atom_site_label_1
    _geom_torsion_atom_site_label_2
    _geom_torsion_atom_site_label_3
    _geom_torsion_atom_site_label_4
    _geom_torsion_site_symmetry_1
    _geom_torsion_site_symmetry_2
    _geom_torsion_site_symmetry_3
    _geom_torsion_site_symmetry_4
    _geom_torsion
    _geom_torsion_publ_flag
    O1 C2 C3 C4 . . . . 2.63(16) y
    C1 C2 C3 C4 . . . . -178.15(10) ?
    C5 N1 C4 O2 . . . . 0.84(17) y
    C5 N1 C4 C3 . . . . -179.04(9) ?
    C2 C3 C4 O2 . . . . 179.25(10) ?
    C2 C3 C4 N1 . . . . -0.86(14) ?
    C4 N1 C5 C10 . . . . -176.57(9) y
    C4 N1 C5 C6 . . . . 4.27(17) y
    C10 C5 C6 C7 . . . . -0.08(15) ?
    N1 C5 C6 C7 . . . . 179.07(9) ?
    C5 C6 C7 C8 . . . . -0.36(16) ?
    C6 C7 C8 C9 . . . . 0.60(16) ?
    C7 C8 C9 C10 . . . . -0.40(16) ?
    C8 C9 C10 F1 . . . . -179.94(9) ?
    C8 C9 C10 C5 . . . . -0.04(16) ?
    C6 C5 C10 F1 . . . . -179.82(8) ?
    N1 C5 C10 F1 . . . . 0.96(13) ?
    C6 C5 C10 C9 . . . . 0.28(15) ?
    N1 C5 C10 C9 . . . . -178.95(9) ?
loop_
    _geom_hbond_atom_site_label_D
    _geom_hbond_atom_site_label_H
    _geom_hbond_atom_site_label_A
    _geom_hbond_site_symmetry_A
    _geom_hbond_distance_DH
    _geom_hbond_distance_HA
    _geom_hbond_distance_DA
    _geom_hbond_angle_DHA
    N1 H1N O1 . 0.883(15) 1.917(16) 2.6869(12) 144.7(13)
data_III
_audit_creation_method     SHELXL97
_chemical_name_systematic
;
3'-fluoroacetoacetanilide
;
_chemical_name_common     ?
_chemical_formula_moiety     'C10 H10 F N O2'
_chemical_formula_sum     'C10 H10 F N O2'
_chemical_formula_weight     195.19
_symmetry_cell_setting     orthorhombic
_symmetry_space_group_name_H-M     'P b c a'
_symmetry_space_group_name_Hall     '-P 2ac 2ab'
loop_
    _symmetry_equiv_pos_as_xyz
    'x, y, z'
    '-x+1/2, -y, z+1/2'
    'x+1/2, -y+1/2, -z'
    '-x, y+1/2, -z+1/2'
    '-x, -y, -z'
    'x-1/2, y, -z-1/2'
    '-x-1/2, y-1/2, z'
    'x, -y-1/2, z-1/2'
_cell_length_a     9.4933(3)
_cell_length_b     9.7792(3)
_cell_length_c     20.2345(7)
_cell_angle_alpha     90
_cell_angle_beta     90
_cell_angle_gamma     90
_cell_volume     1878.51(11)
_cell_formula_units_Z     8
_cell_measurement_reflns_used     2458
_cell_measurement_theta_min     1.27
_cell_measurement_theta_max     27.48
_cell_measurement_temperature     150(2)
_exptl_crystal_description     'cut plate'
_exptl_crystal_colour     colourless
_exptl_crystal_size_max     0.50
_exptl_crystal_size_mid     0.30
_exptl_crystal_size_min     0.05
_exptl_crystal_density_diffrn     1.380
_exptl_crystal_density_meas     'not measured'
_exptl_crystal_density_method     'not measured'
_exptl_crystal_F_000     816
_exptl_absorpt_coefficient_mu     0.110
_exptl_absorpt_correction_type     none
_exptl_absorpt_correction_T_min     ?
_exptl_absorpt_correction_T_max     ?
_exptl_special_details
;
 ?
;
_diffrn_ambient_temperature     150(2)
_diffrn_radiation_type     MoK\a
_diffrn_radiation_wavelength     0.71073
_diffrn_radiation_source     'fine-focus sealed tube'
_diffrn_radiation_monochromator     graphite
_diffrn_measurement_device_type     'Nonius KappaCCD area-detector'
_diffrn_measurement_method     '\f and \w'
_diffrn_detector_area_resol_mean     ?
_diffrn_reflns_number     3999
_diffrn_reflns_av_R_equivalents     0.044
_diffrn_reflns_av_sigmaI/netI     0.051
_diffrn_reflns_theta_min     2.94
_diffrn_reflns_theta_max     27.50
_diffrn_reflns_theta_full     27.50
_diffrn_measured_fraction_theta_max     0.874
_diffrn_measured_fraction_theta_full     0.874
_diffrn_reflns_limit_h_min     -12
_diffrn_reflns_limit_h_max     12
_diffrn_reflns_limit_k_min     -12
_diffrn_reflns_limit_k_max     12
_diffrn_reflns_limit_l_min     -26
_diffrn_reflns_limit_l_max     26
_diffrn_standards_number     0
_diffrn_standards_interval_count     ?
_diffrn_standards_interval_time     ?
_diffrn_standards_decay_%     0
_refine_special_details
;
 Refinement of F^2^ against ALL reflections.  The weighted R-factor wR and
 goodness of fit S are based on F^2^, conventional R-factors R are based
 on F, with F set to zero for negative F^2^. The threshold expression of
 F^2^ > 2sigma(F^2^) is used only for calculating R-factors(gt) etc. and is
 not relevant to the choice of reflections for refinement.  R-factors based
 on F^2^ are statistically about twice as large as those based on F, and R-
 factors based on ALL data will be even larger.
;
_reflns_number_total     2158
_reflns_number_gt     1387
_reflns_threshold_expression     I>2\s(I)
_refine_ls_structure_factor_coef     Fsqd
_refine_ls_matrix_type     full
_refine_ls_R_factor_all     0.086
_refine_ls_R_factor_gt     0.043
_refine_ls_wR_factor_gt     0.091
_refine_ls_wR_factor_ref     0.104
_refine_ls_goodness_of_fit_ref     1.015
_refine_ls_restrained_S_all     1.015
_refine_ls_number_reflns     2158
_refine_ls_number_parameters     167
_refine_ls_number_restraints     0
_refine_ls_hydrogen_treatment     refall
_refine_ls_weighting_scheme     calc
_refine_ls_weighting_details
            'w = 1/[\s^2^(Fo^2^)+(0.0522P)^2^+0.0664P] where P=(Fo^2^+2Fc^2^)/3'
_atom_sites_solution_hydrogens     geom
_atom_sites_solution_primary     direct
_atom_sites_solution_secondary     difmap
_refine_ls_shift/su_max     <0.001
_refine_ls_shift/su_mean     0.000
_refine_diff_density_max     0.18
_refine_diff_density_min     -0.21
_refine_ls_extinction_method     none
_refine_ls_extinction_coef     ?
loop_
    _atom_type_symbol
    _atom_type_description
    _atom_type_scat_dispersion_real
    _atom_type_scat_dispersion_imag
    _atom_type_scat_source
    'C' 'C' 0.0033 0.0016
                         'International Tables Vol C Tables 4.2.6.8 and 6.1.1.4'
    'H' 'H' 0.0000 0.0000
                         'International Tables Vol C Tables 4.2.6.8 and 6.1.1.4'
    'O' 'O' 0.0106 0.0060
                         'International Tables Vol C Tables 4.2.6.8 and 6.1.1.4'
    'N' 'N' 0.0061 0.0033
                         'International Tables Vol C Tables 4.2.6.8 and 6.1.1.4'
    'F' 'F' 0.0171 0.0103
                         'International Tables Vol C Tables 4.2.6.8 and 6.1.1.4'
_computing_data_collection
                   'DENZO (Otwinowski & Minor, 1997) and COLLECT (Nonius, 1998)'
_computing_cell_refinement     'DENZO and COLLECT'
_computing_data_reduction     'DENZO and COLLECT'
_computing_structure_solution     'SHELXS97 (Sheldrick, 1997)'
_computing_structure_refinement     'SHELXL97 (Sheldrick, 1997)'
_computing_molecular_graphics     'ORTEPII (Johnson, 1976)'
_computing_publication_material     'SHELXL97'
loop_
    _atom_site_label
    _atom_site_fract_x
    _atom_site_fract_y
    _atom_site_fract_z
    _atom_site_U_iso_or_equiv
    _atom_site_adp_type
    _atom_site_calc_flag
    _atom_site_refinement_flags
    _atom_site_occupancy
    _atom_site_disorder_assembly
    _atom_site_disorder_group
    _atom_site_type_symbol
    F1 -0.03629(9) 0.39731(10) 0.08777(4) 0.0366(3) Uani d . 1 . . F
    O1 0.25883(13) 0.13894(13) 0.37141(6) 0.0402(3) Uani d . 1 . . O
    O2 0.06376(10) 0.05021(13) 0.24909(5) 0.0363(3) Uani d . 1 . . O
    N1 0.27845(14) 0.09721(14) 0.20457(6) 0.0259(3) Uani d . 1 . . N
    H1N 0.370(2) 0.0787(17) 0.2078(8) 0.035(5) Uiso d . 1 . . H
    C1 0.3917(2) -0.0507(2) 0.40981(10) 0.0386(5) Uani d . 1 . . C
    H1A 0.366(2) -0.146(3) 0.4141(10) 0.062(7) Uiso d . 1 . . H
    H1B 0.482(3) -0.056(3) 0.3952(11) 0.075(8) Uiso d . 1 . . H
    H1C 0.394(2) -0.005(2) 0.4517(12) 0.064(7) Uiso d . 1 . . H
    C2 0.30144(16) 0.02397(18) 0.36163(8) 0.0273(4) Uani d . 1 . . C
    C3 0.26651(17) -0.05238(18) 0.29890(8) 0.0253(4) Uani d . 1 . . C
    H3A 0.3500(18) -0.0902(17) 0.2826(8) 0.029(4) Uiso d . 1 . . H
    H3B 0.2102(17) -0.1299(17) 0.3103(8) 0.031(5) Uiso d . 1 . . H
    C4 0.19230(15) 0.03588(17) 0.24888(7) 0.0250(4) Uani d . 1 . . C
    C5 0.23996(14) 0.17868(16) 0.14999(7) 0.0232(4) Uani d . 1 . . C
    C6 0.11316(16) 0.24979(17) 0.14672(8) 0.0252(4) Uani d . 1 . . C
    H6 0.0467(16) 0.2441(15) 0.1802(7) 0.026(4) Uiso d . 1 . . H
    C7 0.08714(15) 0.32580(17) 0.09095(8) 0.0262(4) Uani d . 1 . . C
    C8 0.17729(17) 0.33549(17) 0.03824(8) 0.0292(4) Uani d . 1 . . C
    H8 0.1454(16) 0.3909(17) -0.0017(9) 0.029(4) Uiso d . 1 . . H
    C9 0.30320(18) 0.26480(19) 0.04270(8) 0.0333(4) Uani d . 1 . . C
    H9 0.3750(16) 0.2711(17) 0.0060(8) 0.037(5) Uiso d . 1 . . H
    C10 0.33527(17) 0.18840(18) 0.09780(8) 0.0294(4) Uani d . 1 . . C
    H10 0.4221(19) 0.1432(18) 0.1014(8) 0.035(5) Uiso d . 1 . . H
loop_
    _atom_site_aniso_label
    _atom_site_aniso_U_11
    _atom_site_aniso_U_22
    _atom_site_aniso_U_33
    _atom_site_aniso_U_12
    _atom_site_aniso_U_13
    _atom_site_aniso_U_23
    F1 0.0276(5) 0.0418(6) 0.0404(6) 0.0074(5) -0.0022(4) 0.0064(5)
    O1 0.0564(8) 0.0268(7) 0.0372(7) 0.0071(6) -0.0023(6) -0.0027(6)
    O2 0.0176(6) 0.0546(8) 0.0368(7) 0.0003(6) 0.0021(5) 0.0094(6)
    N1 0.0163(7) 0.0342(9) 0.0271(7) 0.0017(6) 0.0008(5) 0.0046(6)
    C1 0.0468(12) 0.0337(12) 0.0353(11) 0.0021(10) -0.0108(9) 0.0007(10)
    C2 0.0275(8) 0.0253(10) 0.0292(8) -0.0023(8) 0.0023(7) 0.0015(7)
    C3 0.0215(8) 0.0245(9) 0.0299(9) 0.0012(8) 0.0024(7) -0.0001(7)
    C4 0.0202(8) 0.0279(9) 0.0270(8) -0.0010(7) 0.0013(7) -0.0020(7)
    C5 0.0211(8) 0.0232(9) 0.0252(8) -0.0028(7) -0.0011(6) -0.0021(7)
    C6 0.0214(8) 0.0299(10) 0.0244(8) -0.0006(7) 0.0007(7) -0.0033(8)
    C7 0.0215(8) 0.0261(9) 0.0312(9) 0.0007(7) -0.0048(7) -0.0042(8)
    C8 0.0361(9) 0.0277(9) 0.0239(8) -0.0005(8) -0.0011(7) -0.0002(8)
    C9 0.0365(9) 0.0334(10) 0.0299(9) 0.0004(8) 0.0094(8) -0.0006(8)
    C10 0.0244(8) 0.0276(10) 0.0361(10) 0.0030(8) 0.0056(7) -0.0001(8)
_geom_special_details
;
 All esds (except the esd in the dihedral angle between two l.s. planes)
 are estimated using the full covariance matrix.  The cell esds are taken
 into account individually in the estimation of esds in distances, angles
 and torsion angles; correlations between esds in cell parameters are only
 used when they are defined by crystal symmetry.  An approximate (isotropic)
 treatment of cell esds is used for estimating esds involving l.s. planes.
;
loop_
    _geom_bond_atom_site_label_1
    _geom_bond_atom_site_label_2
    _geom_bond_site_symmetry_2
    _geom_bond_distance
    _geom_bond_publ_flag
    F1 C7 . 1.3661(17) y
    O1 C2 . 1.211(2) y
    O2 C4 . 1.2283(16) y
    N1 C4 . 1.3536(19) y
    N1 C5 . 1.4101(19) y
    N1 H1N . 0.892(19) ?
    C1 C2 . 1.489(3) ?
    C1 H1A . 0.96(2) ?
    C1 H1B . 0.90(2) ?
    C1 H1C . 0.96(2) ?
    C2 C3 . 1.509(2) ?
    C3 C4 . 1.505(2) ?
    C3 H3A . 0.934(17) ?
    C3 H3B . 0.956(17) ?
    C5 C6 . 1.392(2) ?
    C5 C10 . 1.394(2) ?
    C6 C7 . 1.374(2) ?
    C6 H6 . 0.927(15) ?
    C7 C8 . 1.371(2) ?
    C8 C9 . 1.384(2) ?
    C8 H8 . 1.018(17) ?
    C9 C10 . 1.376(2) ?
    C9 H9 . 1.010(16) ?
    C10 H10 . 0.938(18) ?
loop_
    _geom_angle_atom_site_label_1
    _geom_angle_atom_site_label_2
    _geom_angle_atom_site_label_3
    _geom_angle_site_symmetry_1
    _geom_angle_site_symmetry_3
    _geom_angle
    _geom_angle_publ_flag
    C4 N1 C5 . . 127.78(13) y
    C4 N1 H1N . . 116.8(11) ?
    C5 N1 H1N . . 115.2(11) ?
    C2 C1 H1A . . 112.8(12) ?
    C2 C1 H1B . . 110.8(15) ?
    H1A C1 H1B . . 102(2) ?
    C2 C1 H1C . . 111.2(12) ?
    H1A C1 H1C . . 112.4(18) ?
    H1B C1 H1C . . 106.8(19) ?
    O1 C2 C1 . . 122.71(16) ?
    O1 C2 C3 . . 121.55(15) ?
    C1 C2 C3 . . 115.74(15) y
    C4 C3 C2 . . 112.62(14) y
    C4 C3 H3A . . 112.8(10) ?
    C2 C3 H3A . . 107.8(10) ?
    C4 C3 H3B . . 110.8(10) ?
    C2 C3 H3B . . 108.2(10) ?
    H3A C3 H3B . . 104.2(14) ?
    O2 C4 N1 . . 123.51(14) ?
    O2 C4 C3 . . 121.87(14) ?
    N1 C4 C3 . . 114.63(13) y
    C6 C5 C10 . . 119.44(15) ?
    C6 C5 N1 . . 122.93(13) ?
    C10 C5 N1 . . 117.63(14) ?
    C7 C6 C5 . . 117.70(14) ?
    C7 C6 H6 . . 120.7(9) ?
    C5 C6 H6 . . 121.6(9) ?
    F1 C7 C8 . . 117.61(14) ?
    F1 C7 C6 . . 118.03(13) ?
    C8 C7 C6 . . 124.36(15) y
    C7 C8 C9 . . 117.00(16) ?
    C7 C8 H8 . . 117.9(9) ?
    C9 C8 H8 . . 125.0(9) ?
    C10 C9 C8 . . 121.01(15) ?
    C10 C9 H9 . . 118.7(9) ?
    C8 C9 H9 . . 120.2(9) ?
    C9 C10 C5 . . 120.47(15) ?
    C9 C10 H10 . . 120.9(10) ?
    C5 C10 H10 . . 118.7(10) ?
loop_
    _geom_torsion_atom_site_label_1
    _geom_torsion_atom_site_label_2
    _geom_torsion_atom_site_label_3
    _geom_torsion_atom_site_label_4
    _geom_torsion_site_symmetry_1
    _geom_torsion_site_symmetry_2
    _geom_torsion_site_symmetry_3
    _geom_torsion_site_symmetry_4
    _geom_torsion
    _geom_torsion_publ_flag
    O1 C2 C3 C4 . . . . 7.5(2) y
    C1 C2 C3 C4 . . . . -172.10(16) ?
    C5 N1 C4 O2 . . . . -4.2(3) y
    C5 N1 C4 C3 . . . . 175.98(14) ?
    C2 C3 C4 O2 . . . . -86.77(19) ?
    C2 C3 C4 N1 . . . . 93.05(16) ?
    C4 N1 C5 C6 . . . . 24.7(2) y
    C4 N1 C5 C10 . . . . -156.07(16) y
    C10 C5 C6 C7 . . . . 0.8(2) ?
    N1 C5 C6 C7 . . . . -179.94(14) ?
    C5 C6 C7 F1 . . . . -179.16(13) ?
    C5 C6 C7 C8 . . . . 0.4(2) ?
    F1 C7 C8 C9 . . . . 178.70(14) ?
    C6 C7 C8 C9 . . . . -0.9(3) ?
    C7 C8 C9 C10 . . . . 0.1(3) ?
    C8 C9 C10 C5 . . . . 1.2(3) ?
    C6 C5 C10 C9 . . . . -1.6(2) ?
    N1 C5 C10 C9 . . . . 179.12(14) ?
loop_
    _geom_hbond_atom_site_label_D
    _geom_hbond_atom_site_label_H
    _geom_hbond_atom_site_label_A
    _geom_hbond_site_symmetry_A
    _geom_hbond_distance_DH
    _geom_hbond_distance_HA
    _geom_hbond_distance_DA
    _geom_hbond_angle_DHA
    N1 H1N O2 6_656 0.89(2) 2.05(2) 2.903(2) 158.9(15)
data_IV
_audit_creation_method     SHELXL97
_chemical_name_systematic
;
4'-fluoroacetoacetanilide
;
_chemical_name_common     ?
_chemical_formula_moiety     'C10 H10 F N O2'
_chemical_formula_sum     'C10 H10 F N O2'
_chemical_formula_weight     195.19
_symmetry_cell_setting     monoclinic
_symmetry_space_group_name_H-M     'P 21/c'
_symmetry_space_group_name_Hall     '-P 2ybc'
loop_
    _symmetry_equiv_pos_as_xyz
    'x, y, z'
    '-x, y+1/2, -z+1/2'
    '-x, -y, -z'
    'x, -y-1/2, z-1/2'
_cell_length_a     4.98110(10)
_cell_length_b     20.7383(4)
_cell_length_c     18.4869(5)
_cell_angle_alpha     90
_cell_angle_beta     93.0210(10)
_cell_angle_gamma     90
_cell_volume     1907.03(7)
_cell_formula_units_Z     8
_cell_measurement_reflns_used     4374
_cell_measurement_theta_min     2.55
_cell_measurement_theta_max     27.48
_cell_measurement_temperature     150(2)
_exptl_crystal_description     'cut needle'
_exptl_crystal_colour     colourless
_exptl_crystal_size_max     0.60
_exptl_crystal_size_mid     0.20
_exptl_crystal_size_min     0.03
_exptl_crystal_density_diffrn     1.360
_exptl_crystal_density_meas     'not measured'
_exptl_crystal_density_method     'not measured'
_exptl_crystal_F_000     816
_exptl_absorpt_coefficient_mu     0.108
_exptl_absorpt_correction_type     none
_exptl_absorpt_correction_T_min     ?
_exptl_absorpt_correction_T_max     ?
_exptl_special_details
;
 ?
;
_diffrn_ambient_temperature     150(2)
_diffrn_radiation_type     MoK\a
_diffrn_radiation_wavelength     0.71073
_diffrn_radiation_source     'fine-focus sealed tube'
_diffrn_radiation_monochromator     graphite
_diffrn_measurement_device_type     'Nonius KappaCCD area-detector'
_diffrn_measurement_method     '\f and \w'
_diffrn_detector_area_resol_mean     ?
_diffrn_reflns_number     8284
_diffrn_reflns_av_R_equivalents     0.035
_diffrn_reflns_av_sigmaI/netI     0.055
_diffrn_reflns_theta_min     2.95
_diffrn_reflns_theta_max     27.49
_diffrn_reflns_theta_full     27.49
_diffrn_measured_fraction_theta_max     0.970
_diffrn_measured_fraction_theta_full     0.970
_diffrn_reflns_limit_h_min     0
_diffrn_reflns_limit_h_max     6
_diffrn_reflns_limit_k_min     -26
_diffrn_reflns_limit_k_max     26
_diffrn_reflns_limit_l_min     -23
_diffrn_reflns_limit_l_max     23
_diffrn_standards_number     0
_diffrn_standards_interval_count     ?
_diffrn_standards_interval_time     ?
_diffrn_standards_decay_%     0
_refine_special_details
;
 Refinement of F^2^ against ALL reflections.  The weighted R-factor wR and
 goodness of fit S are based on F^2^, conventional R-factors R are based
 on F, with F set to zero for negative F^2^. The threshold expression of
 F^2^ > 2sigma(F^2^) is used only for calculating R-factors(gt) etc. and is
 not relevant to the choice of reflections for refinement.  R-factors based
 on F^2^ are statistically about twice as large as those based on F, and R-
 factors based on ALL data will be even larger.
;
_reflns_number_total     4372
_reflns_number_gt     2728
_reflns_threshold_expression     I>2\s(I)
_refine_ls_structure_factor_coef     Fsqd
_refine_ls_matrix_type     full
_refine_ls_R_factor_all     0.093
_refine_ls_R_factor_gt     0.046
_refine_ls_wR_factor_gt     0.097
_refine_ls_wR_factor_ref     0.113
_refine_ls_goodness_of_fit_ref     1.026
_refine_ls_restrained_S_all     1.026
_refine_ls_number_reflns     4372
_refine_ls_number_parameters     263
_refine_ls_number_restraints     0
_refine_ls_hydrogen_treatment     mixed
_refine_ls_weighting_scheme     calc
_refine_ls_weighting_details
       'calc w = 1/[\s^2^(Fo^2^)+(0.0486P)^2^+0.3055P] where P=(Fo^2^+2Fc^2^)/3'
_atom_sites_solution_hydrogens     geom
_atom_sites_solution_primary     direct
_atom_sites_solution_secondary     difmap
_refine_ls_shift/su_max     0.001
_refine_ls_shift/su_mean     0.000
_refine_diff_density_max     0.21
_refine_diff_density_min     -0.22
_refine_ls_extinction_method     none
_refine_ls_extinction_coef     ?
loop_
    _atom_type_symbol
    _atom_type_description
    _atom_type_scat_dispersion_real
    _atom_type_scat_dispersion_imag
    _atom_type_scat_source
    'F' 'F' 0.0171 0.0103
                         'International Tables Vol C Tables 4.2.6.8 and 6.1.1.4'
    'O' 'O' 0.0106 0.0060
                         'International Tables Vol C Tables 4.2.6.8 and 6.1.1.4'
    'N' 'N' 0.0061 0.0033
                         'International Tables Vol C Tables 4.2.6.8 and 6.1.1.4'
    'C' 'C' 0.0033 0.0016
                         'International Tables Vol C Tables 4.2.6.8 and 6.1.1.4'
    'H' 'H' 0.0000 0.0000
                         'International Tables Vol C Tables 4.2.6.8 and 6.1.1.4'
_computing_data_collection
                   'DENZO (Otwinowski & Minor, 1997) and COLLECT (Nonius, 1998)'
_computing_cell_refinement     'DENZO and COLLECT'
_computing_data_reduction     'DENZO and COLLECT'
_computing_structure_solution     'SHELXS97 (Sheldrick, 1997)'
_computing_structure_refinement     'SHELXL97 (Sheldrick, 1997)'
_computing_molecular_graphics     'ORTEPII (Johnson, 1976)'
_computing_publication_material     'SHELXL97'
loop_
    _atom_site_label
    _atom_site_fract_x
    _atom_site_fract_y
    _atom_site_fract_z
    _atom_site_U_iso_or_equiv
    _atom_site_adp_type
    _atom_site_calc_flag
    _atom_site_refinement_flags
    _atom_site_occupancy
    _atom_site_disorder_assembly
    _atom_site_disorder_group
    _atom_site_type_symbol
    F1 0.1874(2) -0.01606(5) 0.71536(6) 0.0515(3) Uani d . 1 . . F
    F2 1.0148(2) 0.46448(6) 0.60064(6) 0.0530(3) Uani d . 1 . . F
    O1 0.9201(2) 0.31809(6) 0.81717(8) 0.0461(4) Uani d . 1 . . O
    O2 1.0559(2) 0.17888(6) 0.86595(6) 0.0364(3) Uani d . 1 . . O
    O3 0.2814(3) 0.13101(8) 0.49571(9) 0.0657(5) Uani d . 1 . . O
    O4 0.1370(2) 0.23385(6) 0.61212(6) 0.0350(3) Uani d . 1 . . O
    N1 0.9707(3) 0.17207(7) 0.74406(8) 0.0280(3) Uani d . 1 . . N
    N2 0.2276(3) 0.29041(7) 0.51023(8) 0.0286(3) Uani d . 1 . . N
    C1 1.3117(3) 0.37529(9) 0.78825(11) 0.0398(5) Uani d . 1 . . C
    H1A 1.3244 0.3822 0.7361 0.060 Uiso calc R 1 . . H
    H1B 1.4925 0.3704 0.8111 0.060 Uiso calc R 1 . . H
    H1C 1.2227 0.4124 0.8095 0.060 Uiso calc R 1 . . H
    C2 1.1525(3) 0.31581(8) 0.80048(9) 0.0286(4) Uani d . 1 . . C
    C3 1.2890(3) 0.25125(8) 0.79085(9) 0.0283(4) Uani d . 1 . . C
    H3A 1.3519 0.2480 0.7411 0.034 Uiso calc R 1 . . H
    H3B 1.4477 0.2479 0.8252 0.034 Uiso calc R 1 . . H
    C4 1.0979(3) 0.19680(8) 0.80404(9) 0.0270(4) Uani d . 1 . . C
    C5 0.7702(3) 0.12322(8) 0.74025(8) 0.0256(4) Uani d . 1 . . C
    C6 0.7142(4) 0.08381(9) 0.79735(9) 0.0368(4) Uani d . 1 . . C
    H6 0.8108 0.0888 0.8427 0.044 Uiso calc R 1 . . H
    C7 0.5166(4) 0.03679(9) 0.78881(10) 0.0407(5) Uani d . 1 . . C
    H7 0.4771 0.0094 0.8280 0.049 Uiso calc R 1 . . H
    C8 0.3803(3) 0.03054(9) 0.72346(10) 0.0345(4) Uani d . 1 . . C
    C9 0.4310(4) 0.06848(10) 0.66580(10) 0.0430(5) Uani d . 1 . . C
    H9 0.3345 0.0627 0.6206 0.052 Uiso calc R 1 . . H
    C10 0.6262(3) 0.11563(9) 0.67451(9) 0.0384(5) Uani d . 1 . . C
    H10 0.6621 0.1431 0.6351 0.046 Uiso calc R 1 . . H
    C11 -0.1344(4) 0.08412(9) 0.45956(12) 0.0467(5) Uani d . 1 . . C
    H11A -0.0231 0.0489 0.4424 0.070 Uiso calc R 1 . . H
    H11B -0.2555 0.0993 0.4197 0.070 Uiso calc R 1 . . H
    H11C -0.2405 0.0686 0.4992 0.070 Uiso calc R 1 . . H
    C12 0.0416(3) 0.13803(9) 0.48593(9) 0.0351(4) Uani d . 1 . . C
    C13 -0.0893(3) 0.20255(8) 0.50039(9) 0.0298(4) Uani d . 1 . . C
    H13A -0.1350 0.2246 0.4539 0.036 Uiso calc R 1 . . H
    H13B -0.2577 0.1956 0.5254 0.036 Uiso calc R 1 . . H
    C14 0.0998(3) 0.24434(8) 0.54685(9) 0.0272(4) Uani d . 1 . . C
    C15 0.4270(3) 0.33405(8) 0.53680(8) 0.0270(4) Uani d . 1 . . C
    C16 0.5582(3) 0.32950(9) 0.60445(9) 0.0360(4) Uani d . 1 . . C
    H16 0.5132 0.2958 0.6365 0.043 Uiso calc R 1 . . H
    C17 0.7553(3) 0.37394(9) 0.62576(10) 0.0391(5) Uani d . 1 . . C
    H17 0.8437 0.3713 0.6725 0.047 Uiso calc R 1 . . H
    C18 0.8198(3) 0.42101(9) 0.57919(10) 0.0359(4) Uani d . 1 . . C
    C19 0.6977(4) 0.42670(10) 0.51170(10) 0.0468(5) Uani d . 1 . . C
    H19 0.7480 0.4600 0.4798 0.056 Uiso calc R 1 . . H
    C20 0.5000(4) 0.38311(9) 0.49074(10) 0.0424(5) Uani d . 1 . . C
    H20 0.4122 0.3867 0.4440 0.051 Uiso calc R 1 . . H
    H1N 1.012(3) 0.1881(9) 0.7014(10) 0.034(5) Uiso d . 1 . . H
    H2N 0.178(3) 0.2956(9) 0.4644(11) 0.036(5) Uiso d . 1 . . H
loop_
    _atom_site_aniso_label
    _atom_site_aniso_U_11
    _atom_site_aniso_U_22
    _atom_site_aniso_U_33
    _atom_site_aniso_U_12
    _atom_site_aniso_U_13
    _atom_site_aniso_U_23
    F1 0.0435(6) 0.0401(7) 0.0708(8) -0.0167(5) 0.0005(5) -0.0092(6)
    F2 0.0561(7) 0.0519(8) 0.0511(7) -0.0256(6) 0.0039(5) -0.0096(6)
    O1 0.0258(7) 0.0412(8) 0.0721(10) 0.0028(6) 0.0112(6) 0.0058(7)
    O2 0.0486(7) 0.0381(8) 0.0221(6) -0.0084(6) -0.0017(5) 0.0008(5)
    O3 0.0300(8) 0.0649(11) 0.1011(13) 0.0088(7) -0.0071(7) -0.0276(9)
    O4 0.0387(7) 0.0434(8) 0.0227(7) -0.0092(6) -0.0006(5) 0.0078(5)
    N1 0.0331(8) 0.0309(9) 0.0203(7) -0.0050(6) 0.0036(6) 0.0005(6)
    N2 0.0334(8) 0.0331(9) 0.0192(8) -0.0037(6) -0.0018(6) 0.0035(6)
    C1 0.0304(10) 0.0319(11) 0.0571(13) 0.0004(8) 0.0009(8) -0.0009(9)
    C2 0.0253(9) 0.0310(11) 0.0290(9) 0.0000(7) -0.0042(6) 0.0008(7)
    C3 0.0261(8) 0.0302(10) 0.0285(9) -0.0014(7) 0.0001(7) -0.0022(7)
    C4 0.0285(8) 0.0276(10) 0.0249(9) 0.0021(7) 0.0010(6) -0.0025(7)
    C5 0.0280(8) 0.0232(10) 0.0259(9) 0.0006(7) 0.0025(6) -0.0025(7)
    C6 0.0445(10) 0.0370(11) 0.0286(10) -0.0098(9) -0.0025(7) 0.0018(8)
    C7 0.0502(11) 0.0355(12) 0.0370(11) -0.0127(9) 0.0073(8) 0.0026(9)
    C8 0.0286(9) 0.0252(10) 0.0497(12) -0.0045(7) 0.0035(8) -0.0082(8)
    C9 0.0453(11) 0.0437(13) 0.0385(11) -0.0102(9) -0.0114(8) -0.0039(9)
    C10 0.0468(11) 0.0404(12) 0.0274(10) -0.0095(9) -0.0031(8) 0.0049(8)
    C11 0.0444(11) 0.0359(12) 0.0593(13) -0.0001(9) -0.0001(9) -0.0036(10)
    C12 0.0335(10) 0.0410(12) 0.0306(10) 0.0010(8) 0.0014(7) -0.0009(8)
    C13 0.0273(8) 0.0358(11) 0.0260(9) -0.0013(8) -0.0007(6) 0.0024(8)
    C14 0.0260(8) 0.0310(10) 0.0245(9) 0.0023(7) 0.0020(6) 0.0027(7)
    C15 0.0277(9) 0.0284(10) 0.0251(9) 0.0024(7) 0.0043(7) -0.0008(7)
    C16 0.0390(10) 0.0403(12) 0.0284(10) -0.0069(9) -0.0021(7) 0.0075(8)
    C17 0.0395(10) 0.0471(13) 0.0302(10) -0.0078(9) -0.0026(8) -0.0001(9)
    C18 0.0354(10) 0.0340(11) 0.0387(11) -0.0086(8) 0.0054(8) -0.0100(9)
    C19 0.0624(13) 0.0410(13) 0.0372(11) -0.0179(10) 0.0044(9) 0.0079(9)
    C20 0.0540(12) 0.0438(13) 0.0287(10) -0.0139(10) -0.0033(8) 0.0084(9)
_geom_special_details
;
 All esds (except the esd in the dihedral angle between two l.s. planes)
 are estimated using the full covariance matrix.  The cell esds are taken
 into account individually in the estimation of esds in distances, angles
 and torsion angles; correlations between esds in cell parameters are only
 used when they are defined by crystal symmetry.  An approximate (isotropic)
 treatment of cell esds is used for estimating esds involving l.s. planes.
;
loop_
    _geom_bond_atom_site_label_1
    _geom_bond_atom_site_label_2
    _geom_bond_site_symmetry_2
    _geom_bond_distance
    _geom_bond_publ_flag
    F1 C8 . 1.3655(19) y
    F2 C18 . 1.3685(19) y
    O1 C2 . 1.2146(19) y
    O2 C4 . 1.2317(19) y
    O3 C12 . 1.208(2) y
    O4 C14 . 1.2304(18) y
    N1 C4 . 1.349(2) y
    N1 C5 . 1.422(2) y
    N1 H1N . 0.889(18) ?
    N2 C14 . 1.350(2) y
    N2 C15 . 1.413(2) y
    N2 H2N . 0.876(19) ?
    C1 C2 . 1.490(2) ?
    C1 H1A . 0.9800 ?
    C1 H1B . 0.9800 ?
    C1 H1C . 0.9800 ?
    C2 C3 . 1.517(2) ?
    C3 C4 . 1.505(2) ?
    C3 H3A . 0.9900 ?
    C3 H3B . 0.9900 ?
    C5 C6 . 1.375(2) ?
    C5 C10 . 1.387(2) ?
    C6 C7 . 1.389(2) ?
    C6 H6 . 0.9500 ?
    C7 C8 . 1.360(3) ?
    C7 H7 . 0.9500 ?
    C8 C9 . 1.359(3) ?
    C9 C10 . 1.382(2) ?
    C9 H9 . 0.9500 ?
    C10 H10 . 0.9500 ?
    C11 C12 . 1.487(3) ?
    C11 H11A . 0.9800 ?
    C11 H11B . 0.9800 ?
    C11 H11C . 0.9800 ?
    C12 C13 . 1.518(3) ?
    C13 C14 . 1.513(2) ?
    C13 H13A . 0.9900 ?
    C13 H13B . 0.9900 ?
    C15 C16 . 1.383(2) ?
    C15 C20 . 1.387(2) ?
    C16 C17 . 1.388(2) ?
    C16 H16 . 0.9500 ?
    C17 C18 . 1.351(3) ?
    C17 H17 . 0.9500 ?
    C18 C19 . 1.364(3) ?
    C19 C20 . 1.377(3) ?
    C19 H19 . 0.9500 ?
    C20 H20 . 0.9500 ?
loop_
    _geom_angle_atom_site_label_1
    _geom_angle_atom_site_label_2
    _geom_angle_atom_site_label_3
    _geom_angle_site_symmetry_1
    _geom_angle_site_symmetry_3
    _geom_angle
    _geom_angle_publ_flag
    C4 N1 C5 . . 127.60(14) y
    C4 N1 H1N . . 117.8(12) ?
    C5 N1 H1N . . 114.6(11) ?
    C14 N2 C15 . . 128.37(14) y
    C14 N2 H2N . . 117.2(12) ?
    C15 N2 H2N . . 114.4(12) ?
    C2 C1 H1A . . 109.5 ?
    C2 C1 H1B . . 109.5 ?
    H1A C1 H1B . . 109.5 ?
    C2 C1 H1C . . 109.5 ?
    H1A C1 H1C . . 109.5 ?
    H1B C1 H1C . . 109.5 ?
    O1 C2 C1 . . 121.89(16) ?
    O1 C2 C3 . . 120.23(15) ?
    C1 C2 C3 . . 117.88(14) ?
    C4 C3 C2 . . 110.61(13) y
    C4 C3 H3A . . 109.5 ?
    C2 C3 H3A . . 109.5 ?
    C4 C3 H3B . . 109.5 ?
    C2 C3 H3B . . 109.5 ?
    H3A C3 H3B . . 108.1 ?
    O2 C4 N1 . . 123.60(16) ?
    O2 C4 C3 . . 121.12(14) ?
    N1 C4 C3 . . 115.21(14) y
    C6 C5 C10 . . 119.25(16) ?
    C6 C5 N1 . . 123.77(14) ?
    C10 C5 N1 . . 116.98(15) ?
    C5 C6 C7 . . 120.09(16) ?
    C5 C6 H6 . . 120.0 ?
    C7 C6 H6 . . 120.0 ?
    C8 C7 C6 . . 119.03(17) ?
    C8 C7 H7 . . 120.5 ?
    C6 C7 H7 . . 120.5 ?
    C7 C8 C9 . . 122.46(16) y
    C9 C8 F1 . . 118.85(16) ?
    C7 C8 F1 . . 118.69(17) ?
    C8 C9 C10 . . 118.48(17) ?
    C8 C9 H9 . . 120.8 ?
    C10 C9 H9 . . 120.8 ?
    C9 C10 C5 . . 120.68(17) ?
    C9 C10 H10 . . 119.7 ?
    C5 C10 H10 . . 119.7 ?
    C12 C11 H11A . . 109.5 ?
    C12 C11 H11B . . 109.5 ?
    H11A C11 H11B . . 109.5 ?
    C12 C11 H11C . . 109.5 ?
    H11A C11 H11C . . 109.5 ?
    H11B C11 H11C . . 109.5 ?
    O3 C12 C11 . . 121.33(18) ?
    O3 C12 C13 . . 120.69(17) ?
    C11 C12 C13 . . 117.98(15) ?
    C14 C13 C12 . . 110.15(13) y
    C14 C13 H13A . . 109.6 ?
    C12 C13 H13A . . 109.6 ?
    C14 C13 H13B . . 109.6 ?
    C12 C13 H13B . . 109.6 ?
    H13A C13 H13B . . 108.1 ?
    O4 C14 N2 . . 124.49(15) ?
    O4 C14 C13 . . 120.82(15) ?
    N2 C14 C13 . . 114.62(14) y
    C16 C15 C20 . . 118.58(16) ?
    C16 C15 N2 . . 124.10(15) ?
    C20 C15 N2 . . 117.29(14) ?
    C15 C16 C17 . . 120.30(16) ?
    C15 C16 H16 . . 119.9 ?
    C17 C16 H16 . . 119.9 ?
    C18 C17 C16 . . 119.14(16) ?
    C18 C17 H17 . . 120.4 ?
    C16 C17 H17 . . 120.4 ?
    C17 C18 C19 . . 122.40(17) y
    C17 C18 F2 . . 118.69(16) ?
    C19 C18 F2 . . 118.90(17) ?
    C18 C19 C20 . . 118.56(18) ?
    C18 C19 H19 . . 120.7 ?
    C20 C19 H19 . . 120.7 ?
    C19 C20 C15 . . 121.01(17) ?
    C19 C20 H20 . . 119.5 ?
    C15 C20 H20 . . 119.5 ?
loop_
    _geom_torsion_atom_site_label_1
    _geom_torsion_atom_site_label_2
    _geom_torsion_atom_site_label_3
    _geom_torsion_atom_site_label_4
    _geom_torsion_site_symmetry_1
    _geom_torsion_site_symmetry_2
    _geom_torsion_site_symmetry_3
    _geom_torsion_site_symmetry_4
    _geom_torsion
    _geom_torsion_publ_flag
    O1 C2 C3 C4 . . . . 0.5(2) y
    C1 C2 C3 C4 . . . . -179.02(15) ?
    C5 N1 C4 O2 . . . . 0.7(3) y
    C5 N1 C4 C3 . . . . -176.31(14) ?
    C2 C3 C4 O2 . . . . -81.11(19) y
    C2 C3 C4 N1 . . . . 95.98(17) ?
    C4 N1 C5 C6 . . . . -14.2(3) y
    C4 N1 C5 C10 . . . . 166.01(16) y
    C10 C5 C6 C7 . . . . 0.4(3) ?
    N1 C5 C6 C7 . . . . -179.36(16) ?
    C5 C6 C7 C8 . . . . -0.1(3) ?
    C6 C7 C8 C9 . . . . 0.3(3) ?
    C6 C7 C8 F1 . . . . 179.61(15) ?
    C7 C8 C9 C10 . . . . -0.8(3) ?
    F1 C8 C9 C10 . . . . 179.86(16) ?
    C8 C9 C10 C5 . . . . 1.1(3) ?
    C6 C5 C10 C9 . . . . -0.9(3) ?
    N1 C5 C10 C9 . . . . 178.83(16) ?
    O3 C12 C13 C14 . . . . -16.8(2) y
    C11 C12 C13 C14 . . . . 163.15(16) ?
    C15 N2 C14 O4 . . . . 1.4(3) y
    C15 N2 C14 C13 . . . . -175.66(15) ?
    C12 C13 C14 O4 . . . . -75.38(19) y
    C12 C13 C14 N2 . . . . 101.76(17) ?
    C14 N2 C15 C16 . . . . 11.2(3) y
    C14 N2 C15 C20 . . . . -170.91(16) y
    C20 C15 C16 C17 . . . . 1.0(3) ?
    N2 C15 C16 C17 . . . . 178.89(16) ?
    C15 C16 C17 C18 . . . . -1.0(3) ?
    C16 C17 C18 C19 . . . . 0.1(3) ?
    C16 C17 C18 F2 . . . . -179.85(16) ?
    C17 C18 C19 C20 . . . . 0.6(3) ?
    F2 C18 C19 C20 . . . . -179.43(17) ?
    C18 C19 C20 C15 . . . . -0.5(3) ?
    C16 C15 C20 C19 . . . . -0.3(3) ?
    N2 C15 C20 C19 . . . . -178.31(17) ?
loop_
    _geom_hbond_atom_site_label_D
    _geom_hbond_atom_site_label_H
    _geom_hbond_atom_site_label_A
    _geom_hbond_site_symmetry_A
    _geom_hbond_distance_DH
    _geom_hbond_distance_HA
    _geom_hbond_distance_DA
    _geom_hbond_angle_DHA
    N1 H1N O4 1_655 0.89(2) 2.03(2) 2.914(2) 172.0(16)
    N2 H2N O2 4_465 0.88(2) 1.96(2) 2.830(2) 171.2(18)
