
##############################################################################
#                                                                            #
# This CIF contains the data in a paper accepted for publication in Acta     #
# Crystallographica Section B. It has been peer reviewed under the auspices  #
# of the IUCr Commission on Journals.                                        #
#                                                                            #
# Full details of the Crystallographic Information File format               #
# are given in the paper "The Crystallographic Information File (CIF):       #
# a New Standard Archive File for Crystallography" by S. R. Hall, F. H.      #
# Allen and I. D. Brown [Acta Cryst. (1991), A47, 655-685].                  #
#                                                                            #
# The current version of the core CIF dictionary may be obtained from        #
# ftp://ftp.iucr.org/pub/cif_core.dic. The current version number is 2.0.1.  #
#                                                                            #
# Software is freely available for graphical display of the structure(s) in  #
# this CIF.  For information consult the CIF home page http://www.iucr.org/  #
# cif/home.html                                                              #
#                                                                            #
#           Copyright International Union of Crystallography                 #
#                                                                            #
##############################################################################

data_urea
_journal_date_recd_electronic     1997-06-09
_journal_date_accepted     1998-04-20
_journal_name_full     'Acta Crystallographica, Section B'
_journal_year     1999
_journal_volume     55
_journal_issue      1
_journal_page_first     45
_journal_page_last     54
_journal_paper_category     FA
_chemical_formula_sum     'C1 H4 N2 O1'
_chemical_formula_weight     60.0
_symmetry_cell_setting     tetragonal
_symmetry_space_group_name_H-M     'P -4 21 m'
_symmetry_space_group_name_Hall     'P -4 2ab'
_cell_length_a     5.5890(5)
_cell_length_b     5.5890(5)
_cell_length_c     4.6947(4)
_cell_volume     146.64(4)
_cell_formula_units_Z     2
_cell_measurement_temperature     148
_exptl_crystal_size_max      .35
_exptl_crystal_size_mid      .30
_exptl_crystal_size_min      .30
_exptl_absorpt_coefficient_mu      .127
_diffrn_radiation_type     'Mo K\a'
_diffrn_radiation_wavelength      .7069
_diffrn_reflns_number     1971
_diffrn_reflns_av_R_equivalents      .015
_reflns_number_observed     412
loop_
    _atom_site_label
    _atom_site_fract_x
    _atom_site_fract_y
    _atom_site_fract_z
    C  .0 .5000 .32830(10)
    O  .0 .5000 .59630(10)
    N .14470(10)
               .64470(10)
                        .17840(10)
    H1 .2552 .7552 .2845
    H2 .1428 .6428 -.0339
loop_
    _geom_bond_atom_site_label_1
    _geom_bond_atom_site_label_2
    _geom_bond_distance
    C O 1.258
    C N 1.343
    N H1 1.005
    N H2  .997
    O H1 2.014
    O H2 2.071

