
###########################################################################
#
#                 Cambridge Crystallographic Data Centre
#                                CCDC 
# 
###########################################################################
#
#  This CIF contains data generated directly from an entry in the Cambridge 
#  Structural Database and will include bibliographic, chemical, crystal, 
#  experimental, refinement, and atomic coordinate data, as available.
#     
#  Copyright  2006  The Cambridge Crystallographic Data Centre
# 
#  This CIF is provided on the understanding that it is used for bona fide 
#  research purposes only.  It may contain copyright material of the CCDC
#  or of third parties, and may not be copied or further disseminated in 
#  any form, whether machine-readable or not, except for the purpose of 
#  generating routine backup copies on your local computer system.
# 
#  For further information about the CCDC, data deposition and data 
#  retrieval see <www.ccdc.cam.ac.uk>. Bona fide researchers may freely 
#  download  Mercury and enCIFer from this site to visualise CIF-encoded 
#  structures and to carry out CIF format checking respectively.
#
###########################################################################

data_CSD_CIF_CIBCBT
_audit_creation_date 1971-12-31
_audit_creation_method CSD-ConQuest-V1
_database_code_CSD CIBCBT
_chemical_formula_sum 'C8 H6 I2'
_chemical_formula_moiety
;
C8 H6 I2
;
_journal_coden_Cambridge 37
_journal_volume 72
_journal_year 1968
_journal_page_first 668
_journal_name_full 'J.Phys.Chem. '
loop_
_publ_author_name
"G.L.Hardgrove"
"L.K.Templeton"
"D.H.Templeton"
_chemical_name_systematic
;
cis-1,2-Di-iodobenzocyclobutene
;
_chemical_melting_point 423.15
_cell_volume    919.183
_exptl_crystal_density_diffrn 2.58
_diffrn_ambient_temperature ?
_diffrn_special_details
;
The study was carried out at room temperature,in the range 283-303K

;
#These two values have been output from a single CSD field.
_refine_ls_R_factor_gt 0.081
_refine_ls_wR_factor_gt 0.081
_symmetry_cell_setting orthorhombic
_symmetry_space_group_name_H-M 'P n a 21'
_symmetry_Int_Tables_number 33
loop_
_symmetry_equiv_pos_site_id
_symmetry_equiv_pos_as_xyz
1 x,y,z
2 1/2-x,1/2+y,1/2+z
3 1/2+x,1/2-y,z
4 -x,-y,1/2+z
_cell_length_a 16.43(3)
_cell_length_b 12.46(2)
_cell_length_c 4.49(1)
_cell_angle_alpha 90
_cell_angle_beta 90
_cell_angle_gamma 90
_cell_formula_units_Z 4
loop_
_atom_type_symbol
_atom_type_radius_bond
C 0.68
I 1.33
loop_
_atom_site_label
_atom_site_type_symbol
_atom_site_fract_x
_atom_site_fract_y
_atom_site_fract_z
C1 C 0.31500 0.21600 0.32600
C2 C 0.38300 0.12900 0.43100
C3 C 0.42200 0.21500 0.60200
C4 C 0.36600 0.29400 0.54100
C5 C 0.37000 0.39500 0.61800
C6 C 0.43600 0.41900 0.83400
C7 C 0.49400 0.34500 0.87700
C8 C 0.49200 0.23200 0.78400
I1 I 0.19220 0.19370 0.50000
I2 I 0.34970 -0.01660 0.64600
#END

###########################################################################
#
#                 Cambridge Crystallographic Data Centre
#                                CCDC 
# 
###########################################################################
#
#  This CIF contains data generated directly from an entry in the Cambridge 
#  Structural Database and will include bibliographic, chemical, crystal, 
#  experimental, refinement, and atomic coordinate data, as available.
#     
#  Copyright  2006  The Cambridge Crystallographic Data Centre
# 
#  This CIF is provided on the understanding that it is used for bona fide 
#  research purposes only.  It may contain copyright material of the CCDC
#  or of third parties, and may not be copied or further disseminated in 
#  any form, whether machine-readable or not, except for the purpose of 
#  generating routine backup copies on your local computer system.
# 
#  For further information about the CCDC, data deposition and data 
#  retrieval see <www.ccdc.cam.ac.uk>. Bona fide researchers may freely 
#  download  Mercury and enCIFer from this site to visualise CIF-encoded 
#  structures and to carry out CIF format checking respectively.
#
###########################################################################

data_CSD_CIF_DIMETH04
_audit_creation_date 1991-02-12
_audit_creation_method CSD-ConQuest-V1
_database_code_CSD DIMETH04
_chemical_formula_sum 'C1 H2 I2'
_chemical_formula_moiety
;
C1 H2 I2
;
_journal_coden_Cambridge 46
_journal_volume 68
_journal_year 1989
_journal_page_first 835
_journal_name_full 'Mol.Phys. '
loop_
_publ_author_name
"D.A.Prystupa"
"B.H.Torrie"
"B.M.Powell"
"P.N.Gerlach"
_chemical_name_systematic
;
Di-iodomethane
;
_cell_volume    437.283
_exptl_special_details
;
phase II at 50 K polymorph

;
_diffrn_ambient_temperature ?
_diffrn_special_details
;
The study was carried out at room temperature,in the range 283-303K

;
#These two values have been output from a single CSD field.
_refine_ls_R_factor_gt 0.059
_refine_ls_wR_factor_gt 0.059
_symmetry_cell_setting orthorhombic
_symmetry_space_group_name_H-M 'F m m 2'
_symmetry_Int_Tables_number 42
loop_
_symmetry_equiv_pos_site_id
_symmetry_equiv_pos_as_xyz
1 x,y,z
2 x,1/2+y,1/2+z
3 1/2+x,y,1/2+z
4 1/2+x,1/2+y,z
5 -x,y,z
6 -x,1/2+y,1/2+z
7 1/2-x,y,1/2+z
8 1/2-x,1/2+y,z
9 x,-y,z
10 x,1/2-y,1/2+z
11 1/2+x,-y,1/2+z
12 1/2+x,1/2-y,z
13 -x,-y,z
14 -x,1/2-y,1/2+z
15 1/2-x,-y,1/2+z
16 1/2-x,1/2-y,z
_cell_length_a 7.1811(10)
_cell_length_b 12.9572(20)
_cell_length_c 4.6996(7)
_cell_angle_alpha 90
_cell_angle_beta 90
_cell_angle_gamma 90
_cell_formula_units_Z 4
loop_
_atom_type_symbol
_atom_type_radius_bond
C 0.68
H 0.23
I 1.40
loop_
_atom_site_label
_atom_site_type_symbol
_atom_site_fract_x
_atom_site_fract_y
_atom_site_fract_z
C1 C 0.00000 0.00000 0.00000
H1 H 0.1262(13) 0.00000 -0.1329(23)
I1 I 0.00000 0.1389(5) 0.2518(16)
H1D H -0.1262(13) 0.00000 -0.1329(23)
I1H I 0.00000 -0.1389(5) 0.2518(16)
#END

###########################################################################
#
#                 Cambridge Crystallographic Data Centre
#                                CCDC 
# 
###########################################################################
#
#  This CIF contains data generated directly from an entry in the Cambridge 
#  Structural Database and will include bibliographic, chemical, crystal, 
#  experimental, refinement, and atomic coordinate data, as available.
#     
#  Copyright  2006  The Cambridge Crystallographic Data Centre
# 
#  This CIF is provided on the understanding that it is used for bona fide 
#  research purposes only.  It may contain copyright material of the CCDC
#  or of third parties, and may not be copied or further disseminated in 
#  any form, whether machine-readable or not, except for the purpose of 
#  generating routine backup copies on your local computer system.
# 
#  For further information about the CCDC, data deposition and data 
#  retrieval see <www.ccdc.cam.ac.uk>. Bona fide researchers may freely 
#  download  Mercury and enCIFer from this site to visualise CIF-encoded 
#  structures and to carry out CIF format checking respectively.
#
###########################################################################

data_CSD_CIF_DUPCIA10
_audit_creation_date 1988-04-19
_audit_creation_method CSD-ConQuest-V1
_database_code_CSD DUPCIA10
_chemical_formula_sum 'C24 H12 I2'
_chemical_formula_moiety
;
C24 H12,I2
;
_journal_coden_Cambridge 347
_journal_volume 19
_journal_year 1986
_journal_page_first 1
_journal_name_full 'Annu.Rep.Res.R.I.,Kyoto U. '
loop_
_publ_author_name
"S.Mitani"
_chemical_name_systematic
;
Coronene iodine
;
_cell_volume    871.489
_exptl_crystal_colour 'brown'
_exptl_special_details
;
Several C-H bond length discrepencies due to rounding errors; these bonds have
 not been retained

;
_diffrn_ambient_temperature ?
_diffrn_special_details
;
The study was carried out at room temperature,in the range 283-303K

;
#These two values have been output from a single CSD field.
_refine_ls_R_factor_gt 0.055
_refine_ls_wR_factor_gt 0.055
_symmetry_cell_setting monoclinic
_symmetry_space_group_name_H-M 'P 21/a'
_symmetry_Int_Tables_number 14
loop_
_symmetry_equiv_pos_site_id
_symmetry_equiv_pos_as_xyz
1 x,y,z
2 1/2-x,1/2+y,-z
3 -x,-y,-z
4 -1/2+x,-1/2-y,z
_cell_length_a 14.025(2)
_cell_length_b 13.138(2)
_cell_length_c 4.819(1)
_cell_angle_alpha 90
_cell_angle_beta 101.05(3)
_cell_angle_gamma 90
_cell_formula_units_Z 2
loop_
_atom_type_symbol
_atom_type_radius_bond
C 0.68
H 0.23
I 1.40
loop_
_atom_site_label
_atom_site_type_symbol
_atom_site_fract_x
_atom_site_fract_y
_atom_site_fract_z
I1 I 0.48695(5) 0.08926(5) 0.1285(2)
C1 C 0.7549(7) 0.5937(8) 0.140(2)
C2 C 0.6002(6) 0.5079(6) 0.122(2)
C3 C 0.6997(7) 0.5175(8) 0.246(2)
C4 C 0.7408(7) 0.4524(7) 0.473(2)
C5 C 0.6841(7) 0.3805(7) 0.572(2)
C6 C 0.5583(6) 0.5749(6) -0.104(2)
C7 C 0.5415(6) 0.4336(6) 0.224(2)
C8 C 0.5839(7) 0.3697(6) 0.454(2)
C9 C 0.5238(8) 0.2983(7) 0.553(2)
C10 C 0.4273(7) 0.2891(7) 0.436(2)
C11 C 0.6163(6) 0.6481(7) -0.212(2)
C12 C 0.7156(7) 0.6560(8) -0.080(3)
H1 H 0.829(6) 0.601(7) 0.22(2)
H2 H 0.814(5) 0.459(6) 0.57(2)
H3 H 0.716(8) 0.335(9) 0.74(2)
H4 H 0.556(7) 0.250(7) 0.72(2)
H5 H 0.384(4) 0.234(7) 0.51(2)
H6 H 0.761(7) 0.711(8) -0.16(2)
I1B* I 0.51305(5) -0.08926(5) -0.1285(2)
C7B* C 0.4585(6) 0.5664(6) -0.224(2)
C6B* C 0.4417(6) 0.4251(6) 0.104(2)
C11B* C 0.3837(6) 0.3519(7) 0.212(2)
C10B* C 0.5727(7) 0.7109(7) -0.436(2)
C2B* C 0.3998(6) 0.4921(6) -0.122(2)
C8B* C 0.4161(7) 0.6303(6) -0.454(2)
C12B* C 0.2844(7) 0.3440(8) 0.080(3)
C9B* C 0.4762(8) 0.7017(7) -0.553(2)
H5B* H 0.616(4) 0.766(7) -0.51(2)
C3B* C 0.3003(7) 0.4825(8) -0.246(2)
C5B* C 0.3159(7) 0.6195(7) -0.572(2)
C1B* C 0.2451(7) 0.4063(8) -0.140(2)
H6B* H 0.239(7) 0.289(8) 0.16(2)
H4B* H 0.444(7) 0.750(7) -0.72(2)
C4B* C 0.2592(7) 0.5476(7) -0.473(2)
H3B* H 0.284(8) 0.665(9) -0.74(2)
H1B* H 0.171(6) 0.399(7) -0.22(2)
H2B* H 0.186(5) 0.541(6) -0.57(2)
#END

###########################################################################
#
#                 Cambridge Crystallographic Data Centre
#                                CCDC 
# 
###########################################################################
#
#  This CIF contains data generated directly from an entry in the Cambridge 
#  Structural Database and will include bibliographic, chemical, crystal, 
#  experimental, refinement, and atomic coordinate data, as available.
#     
#  Copyright  2006  The Cambridge Crystallographic Data Centre
# 
#  This CIF is provided on the understanding that it is used for bona fide 
#  research purposes only.  It may contain copyright material of the CCDC
#  or of third parties, and may not be copied or further disseminated in 
#  any form, whether machine-readable or not, except for the purpose of 
#  generating routine backup copies on your local computer system.
# 
#  For further information about the CCDC, data deposition and data 
#  retrieval see <www.ccdc.cam.ac.uk>. Bona fide researchers may freely 
#  download  Mercury and enCIFer from this site to visualise CIF-encoded 
#  structures and to carry out CIF format checking respectively.
#
###########################################################################

data_CSD_CIF_ENEMEP
_audit_creation_date 2004-03-25
_audit_creation_method CSD-ConQuest-V1
_database_code_CSD ENEMEP
_database_code_depnum_ccdc_archive 'CCDC 209596'
_chemical_formula_sum 'C12 H16 I2'
_chemical_formula_moiety
;
C12 H16 I2
;
_journal_coden_Cambridge 1291
_journal_year 2003
_journal_page_first 4528
_journal_name_full 'Eur.J.Org.Chem. '
loop_
_publ_author_name
"T.Koizumi"
"K.Tsutsui"
"K.Tanaka"
_chemical_name_systematic
;
1,4-bis(3-Iodopropyl)benzene
;
_cell_volume   1355.712
_exptl_crystal_colour 'colorless'
_exptl_crystal_density_diffrn 2.028
_exptl_crystal_description 'block'
_diffrn_ambient_temperature 173.1
#These two values have been output from a single CSD field.
_refine_ls_R_factor_gt 0.0653
_refine_ls_wR_factor_gt 0.0653
_symmetry_cell_setting monoclinic
_symmetry_space_group_name_H-M 'C 2/c'
_symmetry_Int_Tables_number 15
loop_
_symmetry_equiv_pos_site_id
_symmetry_equiv_pos_as_xyz
1 x,y,z
2 x,-y,1/2+z
3 1/2+x,1/2+y,z
4 1/2+x,1/2-y,1/2+z
5 -x,-y,-z
6 -x,y,-1/2-z
7 -1/2-x,-1/2-y,-z
8 -1/2-x,-1/2+y,-1/2-z
_cell_length_a 22.22(2)
_cell_length_b 6.004(4)
_cell_length_c 10.246(8)
_cell_angle_alpha 90
_cell_angle_beta 97.338(7)
_cell_angle_gamma 90
_cell_formula_units_Z 4
loop_
_atom_type_symbol
_atom_type_radius_bond
C 0.68
H 0.23
I 1.40
loop_
_atom_site_label
_atom_site_type_symbol
_atom_site_fract_x
_atom_site_fract_y
_atom_site_fract_z
I1 I 0.29661(2) 0.07117(7) 0.17169(4)
C1 C 0.4452(3) -0.4274(7) 0.4253(5)
C2 C 0.4695(2) -0.6395(9) 0.4061(5)
C3 C 0.4768(2) -0.2898(8) 0.5192(5)
C4 C 0.3879(2) -0.3482(9) 0.3409(5)
C5 C 0.4014(3) -0.269(1) 0.2064(6)
C6 C 0.3458(3) -0.213(1) 0.1108(5)
H1 H 0.44970 -0.73490 0.33910
H2 H 0.46260 -0.14320 0.53080
H3 H 0.35990 -0.46820 0.32830
H4 H 0.37090 -0.22930 0.38390
H5 H 0.42310 -0.38230 0.16860
H6 H 0.42530 -0.13830 0.21890
H7 H 0.31870 -0.34030 0.10690
H8 H 0.35700 -0.18650 0.02800
C3D* C 0.5232(2) -0.7102(8) 0.4808(5)
C1D* C 0.5548(3) -0.5726(7) 0.5747(5)
C2D* C 0.5305(2) -0.3605(9) 0.5939(5)
H1D* H 0.55030 -0.26510 0.66090
C4D* C 0.6121(2) -0.6518(9) 0.6591(5)
C5D* C 0.5986(3) -0.731(1) 0.7936(6)
C6D* C 0.6542(3) -0.787(1) 0.8892(5)
I1D* I 0.70339(2) -1.07117(7) 0.82831(4)
H7D* H 0.68130 -0.65970 0.89310
H8D* H 0.64300 -0.81350 0.97200
H5D* H 0.57690 -0.61770 0.83140
H6D* H 0.57470 -0.86170 0.78110
H3D* H 0.64010 -0.53180 0.67170
H4D* H 0.62910 -0.77070 0.61610
H2D* H 0.53740 -0.85680 0.46920
#END

###########################################################################
#
#                 Cambridge Crystallographic Data Centre
#                                CCDC 
# 
###########################################################################
#
#  This CIF contains data generated directly from an entry in the Cambridge 
#  Structural Database and will include bibliographic, chemical, crystal, 
#  experimental, refinement, and atomic coordinate data, as available.
#     
#  Copyright  2006  The Cambridge Crystallographic Data Centre
# 
#  This CIF is provided on the understanding that it is used for bona fide 
#  research purposes only.  It may contain copyright material of the CCDC
#  or of third parties, and may not be copied or further disseminated in 
#  any form, whether machine-readable or not, except for the purpose of 
#  generating routine backup copies on your local computer system.
# 
#  For further information about the CCDC, data deposition and data 
#  retrieval see <www.ccdc.cam.ac.uk>. Bona fide researchers may freely 
#  download  Mercury and enCIFer from this site to visualise CIF-encoded 
#  structures and to carry out CIF format checking respectively.
#
###########################################################################

data_CSD_CIF_PIPQUA
_audit_creation_date 1998-11-13
_audit_creation_method CSD-ConQuest-V1
_database_code_CSD PIPQUA
_database_code_depnum_ccdc_archive 'CCDC 101284'
_chemical_formula_sum 'C10 H6 I2'
_chemical_formula_moiety
;
C10 H6 I2
;
_journal_coden_Cambridge 1220
_journal_volume 4
_journal_year 1998
_journal_page_first 677
_journal_name_full 'Chem.-Eur.J. '
loop_
_publ_author_name
"H.Bock"
"M.Sievert"
"Z.Havlas"
_chemical_name_systematic
;
1,8-Di-iodonaphthalene
;
_chemical_melting_point 382.15
_cell_volume   2935.938
_exptl_crystal_colour 'orange-brown'
_exptl_crystal_density_diffrn 2.579
_exptl_crystal_description 'needles'
_exptl_crystal_preparation 'methanol'
_diffrn_ambient_temperature 200
#These two values have been output from a single CSD field.
_refine_ls_R_factor_gt 0.0408
_refine_ls_wR_factor_gt 0.0408
_symmetry_cell_setting triclinic
_symmetry_space_group_name_H-M 'P -1'
_symmetry_Int_Tables_number 2
loop_
_symmetry_equiv_pos_site_id
_symmetry_equiv_pos_as_xyz
1 x,y,z
2 -x,-y,-z
_cell_length_a 12.838(2)
_cell_length_b 15.402(2)
_cell_length_c 15.999(2)
_cell_angle_alpha 77.16(1)
_cell_angle_beta 72.64(1)
_cell_angle_gamma 82.26(1)
_cell_formula_units_Z 12
loop_
_atom_type_symbol
_atom_type_radius_bond
C 0.68
H 0.23
I 1.40
loop_
_atom_site_label
_atom_site_type_symbol
_atom_site_fract_x
_atom_site_fract_y
_atom_site_fract_z
I1 I 0.10824(5) -0.61589(4) 0.34737(4)
I2 I 0.02558(5) -0.61980(4) 0.15714(4)
C1 C 0.0286(6) -0.4864(5) 0.3212(5)
C2 C 0.0280(7) -0.4381(6) 0.3838(5)
H1 H 0.0626(7) -0.4626(6) 0.4296(5)
C3 C -0.0246(7) -0.3520(5) 0.3791(5)
H2 H -0.0273(7) -0.3201(5) 0.4243(5)
C4 C -0.0672(7) -0.3155(6) 0.3201(7)
H3 H -0.1024(7) -0.2573(6) 0.3217(7)
C5 C -0.1072(6) -0.3153(5) 0.1718(6)
H4 H -0.1357(6) -0.2550(5) 0.1701(6)
C6 C -0.1082(7) -0.3490(6) 0.1128(7)
H5 H -0.1379(7) -0.3155(6) 0.0666(7)
C7 C -0.0663(6) -0.4383(6) 0.1091(5)
H6 H -0.0676(6) -0.4644(6) 0.0609(5)
C8 C -0.0233(6) -0.4872(5) 0.1763(5)
C9 C -0.0165(6) -0.4502(4) 0.2476(5)
C10 C -0.0655(6) -0.3591(5) 0.2471(5)
I3 I -0.09075(5) 0.16850(3) 0.14692(4)
I4 I -0.04457(5) 0.15278(3) 0.35729(4)
C11 C -0.0286(6) 0.0341(5) 0.1771(5)
C12 C -0.0360(6) -0.0138(5) 0.1171(5)
H7 H -0.0735(6) 0.0130(5) 0.0737(5)
C13 C 0.0100(7) -0.1007(5) 0.1181(5)
H8 H 0.0028(7) -0.1332(5) 0.0764(5)
C14 C 0.0629(6) -0.1374(5) 0.1762(5)
H9 H 0.0978(6) -0.1955(5) 0.1735(5)
C15 C 0.1272(7) -0.1389(5) 0.3085(6)
H10 H 0.1604(7) -0.1974(5) 0.3048(6)
C16 C 0.1343(7) -0.1025(5) 0.3713(6)
H11 H 0.1737(7) -0.1338(5) 0.4120(6)
C17 C 0.0845(6) -0.0170(5) 0.3806(5)
H12 H 0.0888(6) 0.0085(5) 0.4283(5)
C18 C 0.0291(6) 0.0304(5) 0.3205(5)
C19 C 0.0211(5) -0.0043(5) 0.2478(4)
C20 C 0.0708(6) -0.0944(5) 0.2436(5)
I5 I -0.20592(5) -0.16233(4) 0.50559(4)
I6 I -0.26545(5) -0.05959(4) 0.30232(4)
C21 C -0.3769(7) -0.1700(5) 0.5353(5)
C22 C -0.4182(8) -0.2218(5) 0.6183(5)
H13 H -0.3687(8) -0.2536(5) 0.6501(5)
C23 C -0.5294(8) -0.2290(5) 0.6568(5)
H14 H -0.5554(8) -0.2663(5) 0.7134(5)
C24 C -0.6012(7) -0.1819(5) 0.6125(5)
H15 H -0.6776(7) -0.1847(5) 0.6399(5)
C25 C -0.6415(6) -0.0819(5) 0.4837(5)
H16 H -0.7170(6) -0.0863(5) 0.5139(5)
C26 C -0.6123(6) -0.0308(5) 0.4015(5)
H17 H -0.6662(6) 0.0020(5) 0.3748(5)
C27 C -0.5004(6) -0.0270(5) 0.3560(5)
H18 H -0.4788(6) 0.0075(5) 0.2973(5)
C28 C -0.4221(6) -0.0720(5) 0.3947(5)
C29 C -0.4470(6) -0.1233(4) 0.4831(5)
C30 C -0.5637(6) -0.1287(5) 0.5261(5)
I7 I -0.20615(5) 0.33965(4) 0.48732(5)
I8 I -0.28641(5) 0.45274(6) 0.29773(4)
C31 C -0.3782(6) 0.3319(5) 0.5310(5)
C32 C -0.4107(8) 0.2805(5) 0.6134(5)
H19 H -0.3570(8) 0.2508(5) 0.6419(5)
C33 C -0.5219(8) 0.2702(6) 0.6576(5)
H20 H -0.5431(8) 0.2334(6) 0.7151(5)
C34 C -0.5989(8) 0.3135(6) 0.6173(6)
H21 H -0.6742(8) 0.3075(6) 0.6476(6)
C35 C -0.6522(7) 0.4102(5) 0.4941(6)
H22 H -0.7262(7) 0.4015(5) 0.5271(6)
C36 C -0.6303(7) 0.4634(6) 0.4131(6)
H23 H -0.6881(7) 0.4944(6) 0.3902(6)
C37 C -0.5216(7) 0.4726(5) 0.3630(5)
H24 H -0.5062(7) 0.5086(5) 0.3048(5)
C38 C -0.4369(6) 0.4315(5) 0.3953(5)
C39 C -0.4547(6) 0.3778(5) 0.4825(5)
C40 C -0.5684(6) 0.3675(5) 0.5307(5)
I9 I 0.22577(5) 0.10594(4) -0.00263(4)
I10 I 0.26292(5) 0.15350(5) 0.19083(4)
C41 C 0.3975(6) 0.1107(4) -0.0378(5)
C42 C 0.4452(7) 0.0953(5) -0.1208(5)
H25 H 0.4004(7) 0.0852(5) -0.1549(5)
C43 C 0.5596(7) 0.0936(6) -0.1590(5)
H26 H 0.5915(7) 0.0819(6) -0.2175(5)
C44 C 0.6222(7) 0.1089(5) -0.1108(5)
H27 H 0.6992(7) 0.1091(5) -0.1361(5)
C45 C 0.6472(6) 0.1389(5) 0.0254(6)
H28 H 0.7237(6) 0.1377(5) -0.0026(6)
C46 C 0.6091(7) 0.1536(5) 0.1090(6)
H29 H 0.6581(7) 0.1622(5) 0.1402(6)
C47 C 0.4979(7) 0.1562(5) 0.1492(5)
H30 H 0.4712(7) 0.1674(5) 0.2083(5)
C48 C 0.4246(6) 0.1431(5) 0.1067(5)
C49 C 0.4596(6) 0.1268(4) 0.0183(4)
C50 C 0.5756(6) 0.1249(4) -0.0224(5)
I11 I 0.22066(5) -0.38228(4) -0.00758(5)
I12 I 0.26463(5) -0.37398(4) 0.19830(4)
C51 C 0.3927(6) -0.3884(5) -0.0377(5)
C52 C 0.4420(7) -0.4035(5) -0.1232(6)
H31 H 0.3973(7) -0.4129(5) -0.1577(6)
C53 C 0.5551(8) -0.4054(5) -0.1606(5)
H32 H 0.5870(8) -0.4164(5) -0.2194(5)
C54 C 0.6187(7) -0.3913(5) -0.1115(5)
H33 H 0.6958(7) -0.3921(5) -0.1367(5)
C55 C 0.6445(6) -0.3606(5) 0.0229(5)
H34 H 0.7208(6) -0.3615(5) -0.0059(5)
C56 C 0.6066(7) -0.3453(5) 0.1071(5)
H35 H 0.6555(7) -0.3334(5) 0.1370(5)
C57 C 0.4956(6) -0.3473(5) 0.1492(5)
H36 H 0.4694(6) -0.3380(5) 0.2089(5)
C58 C 0.4221(6) -0.3622(5) 0.1078(5)
C59 C 0.4564(5) -0.3757(4) 0.0174(5)
C60 C 0.5726(6) -0.3752(5) -0.0227(5)
#END

###########################################################################
#
#                 Cambridge Crystallographic Data Centre
#                                CCDC 
# 
###########################################################################
#
#  This CIF contains data generated directly from an entry in the Cambridge 
#  Structural Database and will include bibliographic, chemical, crystal, 
#  experimental, refinement, and atomic coordinate data, as available.
#     
#  Copyright  2006  The Cambridge Crystallographic Data Centre
# 
#  This CIF is provided on the understanding that it is used for bona fide 
#  research purposes only.  It may contain copyright material of the CCDC
#  or of third parties, and may not be copied or further disseminated in 
#  any form, whether machine-readable or not, except for the purpose of 
#  generating routine backup copies on your local computer system.
# 
#  For further information about the CCDC, data deposition and data 
#  retrieval see <www.ccdc.cam.ac.uk>. Bona fide researchers may freely 
#  download  Mercury and enCIFer from this site to visualise CIF-encoded 
#  structures and to carry out CIF format checking respectively.
#
###########################################################################

data_CSD_CIF_PIPROV
_audit_creation_date 1998-11-13
_audit_creation_method CSD-ConQuest-V1
_database_code_CSD PIPROV
_database_code_depnum_ccdc_archive 'CCDC 101284'
_chemical_formula_sum 'C12 H8 I2'
_chemical_formula_moiety
;
C12 H8 I2
;
_journal_coden_Cambridge 1220
_journal_volume 4
_journal_year 1998
_journal_page_first 677
_journal_name_full 'Chem.-Eur.J. '
loop_
_publ_author_name
"H.Bock"
"M.Sievert"
"Z.Havlas"
_chemical_name_systematic
;
2,2'-Di-iodobiphenyl
;
_chemical_melting_point 382.15
_cell_volume   2395.706
_exptl_crystal_colour 'yellow'
_exptl_crystal_density_diffrn 2.251
_exptl_crystal_description 'rods'
_exptl_crystal_preparation 'sublimation'
_diffrn_ambient_temperature 200
#These two values have been output from a single CSD field.
_refine_ls_R_factor_gt 0.0246
_refine_ls_wR_factor_gt 0.0246
_symmetry_cell_setting orthorhombic
_symmetry_space_group_name_H-M 'P b c a'
_symmetry_Int_Tables_number 61
loop_
_symmetry_equiv_pos_site_id
_symmetry_equiv_pos_as_xyz
1 x,y,z
2 1/2+x,y,1/2-z
3 x,1/2-y,1/2+z
4 1/2-x,1/2+y,z
5 -x,-y,-z
6 -1/2-x,-y,-1/2+z
7 -x,-1/2+y,-1/2-z
8 -1/2+x,-1/2-y,-z
_cell_length_a 14.123(3)
_cell_length_b 7.668(2)
_cell_length_c 22.122(4)
_cell_angle_alpha 90
_cell_angle_beta 90
_cell_angle_gamma 90
_cell_formula_units_Z 8
loop_
_atom_type_symbol
_atom_type_radius_bond
C 0.68
H 0.23
I 1.40
loop_
_atom_site_label
_atom_site_type_symbol
_atom_site_fract_x
_atom_site_fract_y
_atom_site_fract_z
I1 I 0.85238(2) 0.02869(4) 0.54510(1)
I2 I 1.13039(2) 0.00876(4) 0.62979(1)
C1 C 0.8653(2) 0.0383(5) 0.6399(2)
C2 C 0.8163(3) -0.0849(6) 0.6747(2)
H1 H 0.7792(3) -0.1723(6) 0.6556(2)
C3 C 0.8220(3) -0.0784(6) 0.7365(2)
H2 H 0.7891(3) -0.1622(6) 0.7601(2)
C4 C 0.8753(3) 0.0493(6) 0.7647(2)
H3 H 0.8774(3) 0.0557(6) 0.8075(2)
C5 C 0.9255(3) 0.1672(5) 0.7302(2)
H4 H 0.9635(3) 0.2525(5) 0.7498(2)
C6 C 0.9429(3) 0.4562(5) 0.6184(2)
H5 H 0.8823(3) 0.4887(5) 0.6333(2)
C7 C 0.9950(4) 0.5735(6) 0.5840(2)
H6 H 0.9701(4) 0.6862(6) 0.5758(2)
C8 C 1.0820(4) 0.5282(6) 0.5617(2)
H7 H 1.1166(4) 0.6087(6) 0.5376(2)
C9 C 1.1196(3) 0.3665(6) 0.5740(2)
H8 H 1.1801(3) 0.3347(6) 0.5587(2)
C10 C 1.0679(3) 0.2505(5) 0.6092(2)
C11 C 0.9789(3) 0.2913(5) 0.6311(2)
C12 C 0.9215(2) 0.1638(5) 0.6673(2)
#END

###########################################################################
#
#                 Cambridge Crystallographic Data Centre
#                                CCDC 
# 
###########################################################################
#
#  This CIF contains data generated directly from an entry in the Cambridge 
#  Structural Database and will include bibliographic, chemical, crystal, 
#  experimental, refinement, and atomic coordinate data, as available.
#     
#  Copyright  2006  The Cambridge Crystallographic Data Centre
# 
#  This CIF is provided on the understanding that it is used for bona fide 
#  research purposes only.  It may contain copyright material of the CCDC
#  or of third parties, and may not be copied or further disseminated in 
#  any form, whether machine-readable or not, except for the purpose of 
#  generating routine backup copies on your local computer system.
# 
#  For further information about the CCDC, data deposition and data 
#  retrieval see <www.ccdc.cam.ac.uk>. Bona fide researchers may freely 
#  download  Mercury and enCIFer from this site to visualise CIF-encoded 
#  structures and to carry out CIF format checking respectively.
#
###########################################################################

data_CSD_CIF_PIPRUB
_audit_creation_date 1998-11-13
_audit_creation_method CSD-ConQuest-V1
_database_code_CSD PIPRUB
_database_code_depnum_ccdc_archive 'CCDC 101284'
_chemical_formula_sum 'C14 H8 I2'
_chemical_formula_moiety
;
C14 H8 I2
;
_journal_coden_Cambridge 1220
_journal_volume 4
_journal_year 1998
_journal_page_first 677
_journal_name_full 'Chem.-Eur.J. '
loop_
_publ_author_name
"H.Bock"
"M.Sievert"
"Z.Havlas"
_chemical_name_systematic
;
1,10-Di-iodophenanthrene
;
_chemical_melting_point 461.15
_cell_volume   1211.190
_exptl_crystal_colour 'brown'
_exptl_crystal_density_diffrn 2.358
_exptl_special_details
;
Melting point range 461.15-466.15K

;
_exptl_crystal_description 'blocks'
_exptl_crystal_preparation 'ether/hexane'
_diffrn_ambient_temperature 150
#These two values have been output from a single CSD field.
_refine_ls_R_factor_gt 0.0401
_refine_ls_wR_factor_gt 0.0401
_symmetry_cell_setting triclinic
_symmetry_space_group_name_H-M 'P -1'
_symmetry_Int_Tables_number 2
loop_
_symmetry_equiv_pos_site_id
_symmetry_equiv_pos_as_xyz
1 x,y,z
2 -x,-y,-z
_cell_length_a 8.772(1)
_cell_length_b 8.774
_cell_length_c 16.582(1)
_cell_angle_alpha 105.03
_cell_angle_beta 100.28
_cell_angle_gamma 90.15
_cell_formula_units_Z 4
loop_
_atom_type_symbol
_atom_type_radius_bond
C 0.68
H 0.23
I 1.40
loop_
_atom_site_label
_atom_site_type_symbol
_atom_site_fract_x
_atom_site_fract_y
_atom_site_fract_z
I1 I 0.58599(3) 1.19974(3) 0.60233(2)
I2 I 0.51499(3) 1.29626(3) 0.40052(2)
I3 I 0.88694(3) 1.09314(3) 0.09839(2)
I4 I 0.61845(3) 1.00446(3) -0.10113(2)
C1 C 0.7647(5) 1.3544(5) 0.5955(2)
C2 C 0.7934(5) 1.4889(5) 0.6636(3)
H1 H 0.7185(5) 1.5190(5) 0.6990(3)
C3 C 0.9336(6) 1.5809(5) 0.6804(3)
H2 H 0.9480(6) 1.6805(5) 0.7214(3)
C4 C 1.0487(6) 1.5233(6) 0.6360(3)
H3 H 1.1483(6) 1.5766(6) 0.6519(3)
C5 C 1.1486(5) 1.3167(6) 0.5300(3)
H4 H 1.2483(5) 1.3697(6) 0.5476(3)
C6 C 1.1292(5) 1.1773(6) 0.4704(3)
H5 H 1.2172(5) 1.1231(6) 0.4544(3)
C7 C 0.9574(6) 0.9790(6) 0.3598(3)
H6 H 1.0460(6) 0.9250(6) 0.3444(3)
C8 C 0.8147(6) 0.9277(6) 0.3125(3)
H7 H 0.8025(6) 0.8335(6) 0.2675(3)
C9 C 0.6848(5) 1.0154(5) 0.3309(3)
H8 H 0.5865(5) 0.9862(5) 0.2948(3)
C10 C 0.7003(5) 1.1441(5) 0.4017(2)
C11 C 0.8441(4) 1.1868(5) 0.4597(2)
C12 C 0.8720(4) 1.3103(5) 0.5400(2)
C13 C 1.0215(5) 1.3867(5) 0.5675(3)
C14 C 0.9761(5) 1.1103(5) 0.4308(3)
C15 C 0.7275(5) 1.2720(5) 0.1020(2)
C16 C 0.6569(5) 1.3058(5) 0.1733(3)
H9 H 0.6608(5) 1.2328(5) 0.2070(3)
C17 C 0.5809(6) 1.4452(6) 0.1955(3)
H10 H 0.5252(6) 1.4628(6) 0.2410(3)
C18 C 0.5865(5) 1.5570(5) 0.1516(3)
H11 H 0.5404(5) 1.6550(5) 0.1693(3)
C19 C 0.6925(5) 1.6556(5) 0.0459(3)
H12 H 0.6511(5) 1.7556(5) 0.0654(3)
C20 C 0.7812(6) 1.6354(5) -0.0142(3)
H13 H 0.8184(6) 1.7248(5) -0.0287(3)
C21 C 0.8951(6) 1.4603(5) -0.1267(3)
H14 H 0.9349(6) 1.5504(5) -0.1394(3)
C22 C 0.9116(6) 1.3130(6) -0.1765(3)
H15 H 0.9705(6) 1.3000(6) -0.2204(3)
C23 C 0.8414(5) 1.1813(5) -0.1626(3)
H16 H 0.8423(5) 1.0802(5) -0.2011(3)
C24 C 0.7702(5) 1.1977(4) -0.0924(2)
C25 C 0.7712(4) 1.3460(4) -0.0324(2)
C26 C 0.7165(5) 1.3754(5) 0.0481(2)
C27 C 0.6597(5) 1.5281(5) 0.0808(2)
C28 C 0.8197(5) 1.4801(5) -0.0566(2)
#END

###########################################################################
#
#                 Cambridge Crystallographic Data Centre
#                                CCDC 
# 
###########################################################################
#
#  This CIF contains data generated directly from an entry in the Cambridge 
#  Structural Database and will include bibliographic, chemical, crystal, 
#  experimental, refinement, and atomic coordinate data, as available.
#     
#  Copyright  2006  The Cambridge Crystallographic Data Centre
# 
#  This CIF is provided on the understanding that it is used for bona fide 
#  research purposes only.  It may contain copyright material of the CCDC
#  or of third parties, and may not be copied or further disseminated in 
#  any form, whether machine-readable or not, except for the purpose of 
#  generating routine backup copies on your local computer system.
# 
#  For further information about the CCDC, data deposition and data 
#  retrieval see <www.ccdc.cam.ac.uk>. Bona fide researchers may freely 
#  download  Mercury and enCIFer from this site to visualise CIF-encoded 
#  structures and to carry out CIF format checking respectively.
#
###########################################################################

data_CSD_CIF_REMWEL
_audit_creation_date 1997-09-09
_audit_creation_method CSD-ConQuest-V1
_database_code_CSD REMWEL
_chemical_formula_sum 'C8 H12 I2'
_chemical_formula_moiety
;
C8 H12 I2
;
_journal_coeditor_code "IUCr FG1291"
_journal_coden_Cambridge 591
_journal_volume 53
_journal_year 1997
_journal_page_first 918
_journal_name_full 'Acta Crystallogr.,Sect.C:Cryst.Struct.Commun. '
loop_
_publ_author_name
"P.G.Jones"
"P.Bubenitschek"
"T.Hopfner"
"H.Hopf"
_chemical_name_systematic
;
3,4-Di-iodo-2,5-dimethylhexa-2,4-diene
;
_cell_volume   1073.392
_exptl_crystal_colour 'colorless'
_exptl_crystal_density_diffrn 2.24
_diffrn_ambient_temperature 143
#These two values have been output from a single CSD field.
_refine_ls_R_factor_gt 0.0215
_refine_ls_wR_factor_gt 0.0215
_symmetry_cell_setting monoclinic
_symmetry_space_group_name_H-M 'C 2/c'
_symmetry_Int_Tables_number 15
loop_
_symmetry_equiv_pos_site_id
_symmetry_equiv_pos_as_xyz
1 x,y,z
2 -x,y,1/2-z
3 1/2+x,1/2+y,z
4 1/2-x,1/2+y,1/2-z
5 -x,-y,-z
6 x,-y,-1/2+z
7 -1/2-x,-1/2-y,-z
8 -1/2+x,-1/2-y,-1/2+z
_cell_length_a 12.614(4)
_cell_length_b 6.607(2)
_cell_length_c 12.921(4)
_cell_angle_alpha 90
_cell_angle_beta 94.59(3)
_cell_angle_gamma 90
_cell_formula_units_Z 4
loop_
_atom_type_symbol
_atom_type_radius_bond
C 0.68
H 0.23
I 1.40
loop_
_atom_site_label
_atom_site_type_symbol
_atom_site_fract_x
_atom_site_fract_y
_atom_site_fract_z
I1 I 0.34581(1) 0.30804(3) 0.26788(1)
C1 C 0.3823(3) 0.6706(5) 0.4503(2)
H1 H 0.34620 0.80210 0.44830
H2 H 0.41830 0.64900 0.51950
H3 H 0.32980 0.56300 0.43510
C2 C 0.4626(2) 0.6669(4) 0.3708(2)
C3 C 0.4619(2) 0.5406(4) 0.29015(19)
C4 C 0.5494(3) 0.8231(5) 0.3889(3)
H4 H 0.58320 0.80860 0.45950
H5 H 0.51870 0.95890 0.38030
H6 H 0.60270 0.80330 0.33870
C3A* C 0.5381(2) 0.5406(4) 0.20985(19)
I1A* I 0.65419(1) 0.30804(3) 0.23212(1)
C2A* C 0.5374(2) 0.6669(4) 0.1292(2)
C1A* C 0.6177(3) 0.6706(5) 0.0497(2)
H1A* H 0.65380 0.80210 0.05170
H2A* H 0.58170 0.64900 -0.01950
H3A* H 0.67020 0.56300 0.06490
C4A* C 0.4506(3) 0.8231(5) 0.1111(3)
H4A* H 0.41680 0.80860 0.04050
H5A* H 0.48130 0.95890 0.11970
H6A* H 0.39730 0.80330 0.16130
#END

###########################################################################
#
#                 Cambridge Crystallographic Data Centre
#                                CCDC 
# 
###########################################################################
#
#  This CIF contains data generated directly from an entry in the Cambridge 
#  Structural Database and will include bibliographic, chemical, crystal, 
#  experimental, refinement, and atomic coordinate data, as available.
#     
#  Copyright  2006  The Cambridge Crystallographic Data Centre
# 
#  This CIF is provided on the understanding that it is used for bona fide 
#  research purposes only.  It may contain copyright material of the CCDC
#  or of third parties, and may not be copied or further disseminated in 
#  any form, whether machine-readable or not, except for the purpose of 
#  generating routine backup copies on your local computer system.
# 
#  For further information about the CCDC, data deposition and data 
#  retrieval see <www.ccdc.cam.ac.uk>. Bona fide researchers may freely 
#  download  Mercury and enCIFer from this site to visualise CIF-encoded 
#  structures and to carry out CIF format checking respectively.
#
###########################################################################

data_CSD_CIF_SAQZOY
_audit_creation_date 2001-11-29
_audit_creation_method CSD-ConQuest-V1
_database_code_CSD SAQZOY
_database_code_depnum_ccdc_archive 'CCDC 173388'
_chemical_formula_sum 'C9 H9 I3'
_chemical_formula_moiety
;
C9 H9 I3
;
_journal_coeditor_code "IUCr AV1075"
_journal_coden_Cambridge 591
_journal_volume 57
_journal_year 2001
_journal_page_first 1106
_journal_name_full 'Acta Crystallogr.,Sect.C:Cryst.Struct.Commun. '
loop_
_publ_author_name
"A.Boudjada"
"O.Hernandez"
"J.Meinnel"
"M.Mani"
"W.Paulus"
_chemical_name_systematic
;
1,3,5-Triiodo-2,4,6-trimethylbenzene
;
_chemical_name_common
;
Tri-iodomesitylene
;
_cell_volume    586.973
_exptl_crystal_colour 'colorless'
_exptl_crystal_density_diffrn 2.818
_exptl_special_details
;
isomorphous with ther chloro and bromo analogues

;
_exptl_crystal_description 'prism'
_exptl_crystal_preparation 'sublimation'
_diffrn_ambient_temperature 293.0
#These two values have been output from a single CSD field.
_refine_ls_R_factor_gt 0.03
_refine_ls_wR_factor_gt 0.03
_symmetry_cell_setting triclinic
_symmetry_space_group_name_H-M 'P -1'
_symmetry_Int_Tables_number 2
loop_
_symmetry_equiv_pos_site_id
_symmetry_equiv_pos_as_xyz
1 x,y,z
2 -x,-y,-z
_cell_length_a 8.0486(1)
_cell_length_b 9.6105(1)
_cell_length_c 9.6204(1)
_cell_angle_alpha 60.1766(6)
_cell_angle_beta 66.7586(7)
_cell_angle_gamma 85.3542(7)
_cell_formula_units_Z 2
loop_
_atom_type_symbol
_atom_type_radius_bond
C 0.68
H 0.23
I 1.40
loop_
_atom_site_label
_atom_site_type_symbol
_atom_site_fract_x
_atom_site_fract_y
_atom_site_fract_z
I1 I 0.26077(4) 0.35185(3) -0.26929(4)
I2 I 0.28459(5) -0.33385(3) -0.13297(4)
I3 I 0.20360(4) -0.19753(3) 0.43862(3)
C1 C 0.2546(5) 0.1027(4) -0.0981(4)
C2 C 0.2657(5) -0.0030(4) -0.1615(4)
C3 C 0.2641(5) -0.1665(4) -0.0461(5)
C4 C 0.2488(5) -0.2269(4) 0.1248(4)
C5 C 0.2352(5) -0.1141(4) 0.1793(4)
C6 C 0.2380(5) 0.0530(4) 0.0712(4)
C7 C 0.2780(7) 0.0569(5) -0.3433(5)
C8 C 0.2470(7) -0.4052(5) 0.2455(6)
C9 C 0.2283(7) 0.1702(5) 0.1328(6)
H1 H 0.365(7) 0.167(5) -0.431(3)
H2 H 0.149(4) 0.073(7) -0.344(3)
H3 H 0.331(8) -0.028(4) -0.381(4)
H4 H 0.132(6) -0.473(2) 0.272(8)
H5 H 0.24(1) -0.423(2) 0.363(5)
H6 H 0.365(6) -0.443(3) 0.185(5)
H7 H 0.21(1) 0.107(3) 0.263(5)
H8 H 0.117(6) 0.232(6) 0.123(9)
H9 H 0.348(5) 0.252(6) 0.056(6)
#END

###########################################################################
#
#                 Cambridge Crystallographic Data Centre
#                                CCDC 
# 
###########################################################################
#
#  This CIF contains data generated directly from an entry in the Cambridge 
#  Structural Database and will include bibliographic, chemical, crystal, 
#  experimental, refinement, and atomic coordinate data, as available.
#     
#  Copyright  2006  The Cambridge Crystallographic Data Centre
# 
#  This CIF is provided on the understanding that it is used for bona fide 
#  research purposes only.  It may contain copyright material of the CCDC
#  or of third parties, and may not be copied or further disseminated in 
#  any form, whether machine-readable or not, except for the purpose of 
#  generating routine backup copies on your local computer system.
# 
#  For further information about the CCDC, data deposition and data 
#  retrieval see <www.ccdc.cam.ac.uk>. Bona fide researchers may freely 
#  download  Mercury and enCIFer from this site to visualise CIF-encoded 
#  structures and to carry out CIF format checking respectively.
#
###########################################################################

data_CSD_CIF_TECWUT
_audit_creation_date 1997-02-10
_audit_creation_method CSD-ConQuest-V1
_database_code_CSD TECWUT
_database_code_depnum_ccdc_fiz 'CSD 402236'
_chemical_formula_sum 'C14 H8 I2'
_chemical_formula_moiety
;
C14 H8 I2
;
_journal_coden_Cambridge 643
_journal_volume 211
_journal_year 1996
_journal_page_first 360
_journal_name_full 'Z.Kristallogr. '
loop_
_publ_author_name
"K.Peters"
"E.-M.Peters"
"K.Syassen"
_chemical_name_systematic
;
9,10-Di-iodoanthracene
;
_cell_volume    590.998
_exptl_crystal_colour 'yellow'
_diffrn_ambient_temperature ?
_diffrn_special_details
;
The study was carried out at room temperature,in the range 283-303K

;
#These two values have been output from a single CSD field.
_refine_ls_R_factor_gt 0.064
_refine_ls_wR_factor_gt 0.064
_symmetry_cell_setting triclinic
_symmetry_space_group_name_H-M 'P -1'
_symmetry_Int_Tables_number 2
loop_
_symmetry_equiv_pos_site_id
_symmetry_equiv_pos_as_xyz
1 x,y,z
2 -x,-y,-z
_cell_length_a 4.352(1)
_cell_length_b 9.066(3)
_cell_length_c 15.771(5)
_cell_angle_alpha 104.650(2)
_cell_angle_beta 95.300(3)
_cell_angle_gamma 97.920(3)
_cell_formula_units_Z 2
loop_
_atom_type_symbol
_atom_type_radius_bond
C 0.68
H 0.23
I 1.40
loop_
_atom_site_label
_atom_site_type_symbol
_atom_site_fract_x
_atom_site_fract_y
_atom_site_fract_z
I1 I 0.43454(19) 0.35709(8) 0.64040(5)
C1 C 0.4700(23) 0.141(1) 0.55441(59)
C2 C 0.3424(23) 0.0100(11) 0.57602(61)
C3 C 0.1714(28) 0.0114(12) 0.64925(72)
H1 H 0.1483(28) 0.1065(12) 0.69002(72)
C4 C 0.0455(27) -0.1232(13) 0.66689(68)
H2 H -0.0753(27) -0.1190(13) 0.71513(68)
C5 C 0.0895(29) -0.2708(12) 0.61219(73)
H3 H 0.0135(29) -0.3631(12) 0.62844(73)
C6 C 0.2473(28) -0.2752(12) 0.54186(67)
H4 H 0.2664(28) -0.3748(12) 0.50520(67)
C7 C 0.6182(23) 0.1395(10) 0.48058(57)
I2 I 1.32242(20) 0.70633(9) 0.84755(5)
C8 C 1.4276(25) 0.5870(11) 0.94306(57)
C9 C 1.2688(22) 0.4329(10) 0.92640(57)
C10 C 1.0233(25) 0.3625(11) 0.85425(66)
H5 H 0.9615(25) 0.4173(11) 0.81249(66)
C11 C 0.8727(28) 0.2161(13) 0.84307(74)
H6 H 0.7068(28) 0.1710(13) 0.79513(74)
C12 C 0.962(3) 0.1246(13) 0.89856(72)
H7 H 0.8698(30) 0.0174(13) 0.88464(72)
C13 C 1.1946(26) 0.1870(12) 0.96824(75)
H8 H 1.2402(26) 0.1277(12) 1.00898(75)
C14 C 1.6507(24) 0.654(1) 1.01258(58)
C7A* C 0.3818(23) -0.1395(10) 0.51942(57)
C1A* C 0.5300(23) -0.141(1) 0.44559(59)
I1A* I 0.56546(19) -0.35709(8) 0.35960(5)
C2A* C 0.6576(23) -0.0100(11) 0.42398(61)
C3A* C 0.8286(28) -0.0114(12) 0.35075(72)
H1A* H 0.8517(28) -0.1065(12) 0.30998(72)
C4A* C 0.9545(27) 0.1232(13) 0.33311(68)
H2A* H 1.0753(27) 0.1190(13) 0.28487(68)
C5A* C 0.9105(29) 0.2708(12) 0.38781(73)
H3A* H 0.9865(29) 0.3631(12) 0.37156(73)
C6A* C 0.7527(28) 0.2752(12) 0.45814(67)
H4A* H 0.7336(28) 0.3748(12) 0.49480(67)
C14A* C 1.3493(24) 0.346(1) 0.98742(58)
C8A* C 1.5724(25) 0.4130(11) 1.05694(57)
I2A* I 1.67758(20) 0.29367(9) 1.15245(5)
C9A* C 1.7312(22) 0.5671(10) 1.07360(57)
C10A* C 1.9767(25) 0.6375(11) 1.14575(66)
H5A* H 2.0385(25) 0.5827(11) 1.18751(66)
C11A* C 2.1273(28) 0.7839(13) 1.15693(74)
H6A* H 2.2932(28) 0.8290(13) 1.20487(74)
C12A* C 2.038(3) 0.8754(13) 1.10144(72)
H7A* H 2.1302(30) 0.9826(13) 1.11536(72)
C13A* C 1.8054(26) 0.8130(12) 1.03176(75)
H8A* H 1.7598(26) 0.8723(12) 0.99102(75)
#END

###########################################################################
#
#                 Cambridge Crystallographic Data Centre
#                                CCDC 
# 
###########################################################################
#
#  This CIF contains data generated directly from an entry in the Cambridge 
#  Structural Database and will include bibliographic, chemical, crystal, 
#  experimental, refinement, and atomic coordinate data, as available.
#     
#  Copyright  2006  The Cambridge Crystallographic Data Centre
# 
#  This CIF is provided on the understanding that it is used for bona fide 
#  research purposes only.  It may contain copyright material of the CCDC
#  or of third parties, and may not be copied or further disseminated in 
#  any form, whether machine-readable or not, except for the purpose of 
#  generating routine backup copies on your local computer system.
# 
#  For further information about the CCDC, data deposition and data 
#  retrieval see <www.ccdc.cam.ac.uk>. Bona fide researchers may freely 
#  download  Mercury and enCIFer from this site to visualise CIF-encoded 
#  structures and to carry out CIF format checking respectively.
#
###########################################################################

data_CSD_CIF_VADBUY
_audit_creation_date 2003-03-19
_audit_creation_method CSD-ConQuest-V1
_database_code_CSD VADBUY
_database_code_depnum_ccdc_archive 'CCDC 198764'
_chemical_formula_sum 'C7 H10 I2'
_chemical_formula_moiety
;
C7 H10 I2
;
_journal_coden_Cambridge 1078
_journal_year 2002
_journal_name_full 'Private Communication '
loop_
_publ_author_name
"C.Siedschlag"
"G.Szeimies"
"K.Polborn"
_chemical_name_systematic
;
1,5-bis(Iodo)bicyclo(3.1.1)heptane
;
_cell_volume    964.475
_exptl_crystal_colour 'yellow'
_exptl_crystal_density_diffrn 2.396
_exptl_special_details
;
contribution from Department of Chemistry, University of Munich, Butenandtstra
sse 5-13, Haus F, D-81377 Munich, Germany

;
_exptl_crystal_description 'plate'
_diffrn_ambient_temperature 295
#These two values have been output from a single CSD field.
_refine_ls_R_factor_gt 0.0371
_refine_ls_wR_factor_gt 0.0371
_symmetry_cell_setting orthorhombic
_symmetry_space_group_name_H-M 'P 21 21 21'
_symmetry_Int_Tables_number 19
loop_
_symmetry_equiv_pos_site_id
_symmetry_equiv_pos_as_xyz
1 x,y,z
2 1/2-x,-y,1/2+z
3 1/2+x,1/2-y,-z
4 -x,1/2+y,1/2-z
_cell_length_a 6.839(2)
_cell_length_b 10.046(3)
_cell_length_c 14.038(4)
_cell_angle_alpha 90
_cell_angle_beta 90
_cell_angle_gamma 90
_cell_formula_units_Z 4
loop_
_atom_type_symbol
_atom_type_radius_bond
C 0.68
H 0.23
I 1.40
loop_
_atom_site_label
_atom_site_type_symbol
_atom_site_fract_x
_atom_site_fract_y
_atom_site_fract_z
I1 I 0.68903(11) 0.15303(7) 0.08492(6)
I2 I 0.36833(14) 0.68214(8) 0.06906(7)
C1 C 0.7014(14) 0.358(1) 0.1304(7)
C2 C 0.5089(16) 0.4168(9) 0.1699(8)
H1 H 0.4989(16) 0.4170(9) 0.2388(8)
H2 H 0.3910(16) 0.3829(9) 0.1401(8)
C3 C 0.5881(15) 0.5474(10) 0.1262(8)
C4 C 0.7296(17) 0.6184(11) 0.1909(9)
H3 H 0.6580(17) 0.6709(11) 0.2372(9)
H4 H 0.8109(17) 0.6782(11) 0.1539(9)
C5 C 0.8573(23) 0.5174(15) 0.242(1)
H5 H 0.9881(23) 0.5540(15) 0.2473(10)
H6 H 0.8073(23) 0.5062(15) 0.3062(10)
C6 C 0.8722(16) 0.3803(11) 0.1958(8)
H7 H 0.9932(16) 0.3740(11) 0.1600(8)
H8 H 0.8738(16) 0.3122(11) 0.2448(8)
C7 C 0.6933(17) 0.4637(10) 0.0509(7)
H9 H 0.8197(17) 0.4982(10) 0.0315(7)
H10 H 0.6134(17) 0.4395(10) -0.0035(7)
#END

###########################################################################
#
#                 Cambridge Crystallographic Data Centre
#                                CCDC 
# 
###########################################################################
#
#  This CIF contains data generated directly from an entry in the Cambridge 
#  Structural Database and will include bibliographic, chemical, crystal, 
#  experimental, refinement, and atomic coordinate data, as available.
#     
#  Copyright  2006  The Cambridge Crystallographic Data Centre
# 
#  This CIF is provided on the understanding that it is used for bona fide 
#  research purposes only.  It may contain copyright material of the CCDC
#  or of third parties, and may not be copied or further disseminated in 
#  any form, whether machine-readable or not, except for the purpose of 
#  generating routine backup copies on your local computer system.
# 
#  For further information about the CCDC, data deposition and data 
#  retrieval see <www.ccdc.cam.ac.uk>. Bona fide researchers may freely 
#  download  Mercury and enCIFer from this site to visualise CIF-encoded 
#  structures and to carry out CIF format checking respectively.
#
###########################################################################

data_CSD_CIF_ZZZFHE01
_audit_creation_date 2004-04-01
_audit_creation_method CSD-ConQuest-V1
_database_code_CSD ZZZFHE01
_database_code_depnum_ccdc_archive 'CCDC 218335'
_chemical_formula_sum 'C2 H4 I2'
_chemical_formula_moiety
;
C2 H4 I2
;
_journal_coden_Cambridge 1003
_journal_volume 33
_journal_year 2003
_journal_page_first 969
_journal_name_full 'J.Chem.Cryst. '
loop_
_publ_author_name
"F.Akkerman"
"J.Buschmann"
"D.Lentz"
"P.Luger"
"E.Rodel"
_chemical_name_systematic
;
1,2-Diiodoethane
;
_chemical_melting_point 81
_cell_volume    272.797
_exptl_crystal_colour 'colorless'
_exptl_crystal_density_diffrn 3.431
_exptl_special_details
;
Melting point range 81-84K

;
_exptl_crystal_description 'platelet'
_exptl_crystal_preparation 'pentane'
_diffrn_ambient_temperature 153
#These two values have been output from a single CSD field.
_refine_ls_R_factor_gt 0.0332
_refine_ls_wR_factor_gt 0.0332
_symmetry_cell_setting monoclinic
_symmetry_space_group_name_H-M 'P 21/n'
_symmetry_Int_Tables_number 14
loop_
_symmetry_equiv_pos_site_id
_symmetry_equiv_pos_as_xyz
1 x,y,z
2 1/2+x,1/2-y,1/2+z
3 -x,-y,-z
4 -1/2-x,-1/2+y,-1/2-z
_cell_length_a 4.6051(7)
_cell_length_b 12.939(2)
_cell_length_c 4.7318(7)
_cell_angle_alpha 90
_cell_angle_beta 104.636(3)
_cell_angle_gamma 90
_cell_formula_units_Z 2
loop_
_atom_type_symbol
_atom_type_radius_bond
C 0.68
H 0.23
I 1.40
loop_
_atom_site_label
_atom_site_type_symbol
_atom_site_fract_x
_atom_site_fract_y
_atom_site_fract_z
I1 I 0.16648(6) 0.85166(2) 0.28227(5)
C1 C 0.4769(10) 0.9526(3) 0.5791(8)
H1 H 0.39620 0.97060 0.74330
H2 H 0.66690 0.91750 0.65370
C1B* C 0.5231(10) 1.0474(3) 0.4209(8)
I1B* I 0.83352(6) 1.14834(2) 0.71773(5)
H1B* H 0.60380 1.02940 0.25670
H2B* H 0.33310 1.08250 0.34630
#END

###########################################################################
#
#                 Cambridge Crystallographic Data Centre
#                                CCDC 
# 
###########################################################################
#
#  This CIF contains data generated directly from an entry in the Cambridge 
#  Structural Database and will include bibliographic, chemical, crystal, 
#  experimental, refinement, and atomic coordinate data, as available.
#     
#  Copyright  2006  The Cambridge Crystallographic Data Centre
# 
#  This CIF is provided on the understanding that it is used for bona fide 
#  research purposes only.  It may contain copyright material of the CCDC
#  or of third parties, and may not be copied or further disseminated in 
#  any form, whether machine-readable or not, except for the purpose of 
#  generating routine backup copies on your local computer system.
# 
#  For further information about the CCDC, data deposition and data 
#  retrieval see <www.ccdc.cam.ac.uk>. Bona fide researchers may freely 
#  download  Mercury and enCIFer from this site to visualise CIF-encoded 
#  structures and to carry out CIF format checking respectively.
#
###########################################################################

data_CSD_CIF_ZZZPRO05
_audit_creation_date 1996-09-23
_audit_creation_method CSD-ConQuest-V1
_database_code_CSD ZZZPRO05
_database_code_depnum_ccdc_fiz 'CSD 320040'
_chemical_formula_sum 'C6 H4 I2'
_chemical_formula_moiety
;
C6 H4 I2
;
_journal_coden_Cambridge 1078
_journal_year 1996
_journal_name_full 'Private Communication '
loop_
_publ_author_name
"R.Boese"
"T.Miebach"
_chemical_name_systematic
;
1,4-Di-iodobenzene
;
_cell_volume    765.126
_exptl_special_details
;
low temperature phase polymorph

;
_diffrn_ambient_temperature ?
_diffrn_special_details
;
The study was carried out at room temperature,in the range 283-303K

;
#These two values have been output from a single CSD field.
_refine_ls_R_factor_gt 0.0335
_refine_ls_wR_factor_gt 0.0335
_symmetry_cell_setting orthorhombic
_symmetry_space_group_name_H-M 'P b c a'
_symmetry_Int_Tables_number 61
loop_
_symmetry_equiv_pos_site_id
_symmetry_equiv_pos_as_xyz
1 x,y,z
2 1/2-x,-y,1/2+z
3 1/2+x,1/2-y,-z
4 -x,1/2+y,1/2-z
5 -x,-y,-z
6 -1/2+x,y,-1/2-z
7 -1/2-x,-1/2+y,z
8 x,-1/2-y,-1/2+z
_cell_length_a 16.9697(24)
_cell_length_b 7.3242(11)
_cell_length_c 6.156(1)
_cell_angle_alpha 90
_cell_angle_beta 90
_cell_angle_gamma 90
_cell_formula_units_Z 4
loop_
_atom_type_symbol
_atom_type_radius_bond
C 0.68
H 0.23
I 1.40
loop_
_atom_site_label
_atom_site_type_symbol
_atom_site_fract_x
_atom_site_fract_y
_atom_site_fract_z
I1 I 0.67091(2) 0.95998(6) 0.19498(6)
C1 C 0.56821(29) 0.98126(56) 0.38104(85)
C2 C 0.49735(35) 0.92857(70) 0.29286(72)
H1 H 0.49571(35) 0.87908(70) 0.14853(72)
C3 C 0.57161(30) 1.05320(61) 0.58935(85)
H2 H 0.62108(30) 1.09006(61) 0.65100(85)
C3D* C 0.42839(30) 0.94680(61) 0.41065(85)
C1D* C 0.43179(29) 1.01874(56) 0.61896(85)
I1D* I 0.32909(2) 1.04002(6) 0.80502(6)
C2D* C 0.50265(35) 1.07143(70) 0.70714(72)
H1D* H 0.50429(35) 1.12092(70) 0.85147(72)
H2D* H 0.37892(30) 0.90994(61) 0.34900(85)
#END

###########################################################################
#
#                 Cambridge Crystallographic Data Centre
#                                CCDC 
# 
###########################################################################
#
#  This CIF contains data generated directly from an entry in the Cambridge 
#  Structural Database and will include bibliographic, chemical, crystal, 
#  experimental, refinement, and atomic coordinate data, as available.
#     
#  Copyright  2006  The Cambridge Crystallographic Data Centre
# 
#  This CIF is provided on the understanding that it is used for bona fide 
#  research purposes only.  It may contain copyright material of the CCDC
#  or of third parties, and may not be copied or further disseminated in 
#  any form, whether machine-readable or not, except for the purpose of 
#  generating routine backup copies on your local computer system.
# 
#  For further information about the CCDC, data deposition and data 
#  retrieval see <www.ccdc.cam.ac.uk>. Bona fide researchers may freely 
#  download  Mercury and enCIFer from this site to visualise CIF-encoded 
#  structures and to carry out CIF format checking respectively.
#
###########################################################################

data_CSD_CIF_REBBEG
_audit_creation_date 2006-03-15
_audit_creation_method CSD-ConQuest-V1
_database_code_CSD REBBEG
_database_code_depnum_ccdc_archive 'CCDC 298358'
_chemical_formula_sum 'C6 H3 I3'
_chemical_formula_moiety
;
C6 H3 I3
;
_journal_coeditor_code "IUCr AT6069"
_journal_coden_Cambridge 1370
_journal_volume 62
_journal_year 2006
_journal_page_first o502
_journal_name_full 'Acta Crystallogr.,Sect.E:Struct.Rep.Online '
loop_
_publ_author_name
"D.Margraf"
"J.W.Bats"
_chemical_name_systematic
;
1,3,5-Tri-iodobenzene
;
_cell_volume    893.709
_exptl_crystal_colour 'colorless'
_exptl_crystal_density_diffrn 3.387
_exptl_special_details
;
probably isomorphous with the Cl and Br analogues

;
_exptl_crystal_description 'rod'
_exptl_crystal_preparation 'perdeuterochloroform'
_diffrn_ambient_temperature 161
_diffrn_special_details
;
The crystal is probably a twin consisting of domains with opposite chirality

;
#These two values have been output from a single CSD field.
_refine_ls_R_factor_gt 0.0217
_refine_ls_wR_factor_gt 0.0217
_symmetry_cell_setting orthorhombic
_symmetry_space_group_name_H-M 'P 21 21 21'
_symmetry_Int_Tables_number 19
loop_
_symmetry_equiv_pos_site_id
_symmetry_equiv_pos_as_xyz
1 x,y,z
2 1/2-x,-y,1/2+z
3 -x,1/2+y,1/2-z
4 1/2+x,1/2-y,-z
_cell_length_a 4.3287(6)
_cell_length_b 14.224(2)
_cell_length_c 14.515(2)
_cell_angle_alpha 90
_cell_angle_beta 90
_cell_angle_gamma 90
_cell_formula_units_Z 4
loop_
_atom_type_symbol
_atom_type_radius_bond
C 0.68
H 0.23
I 1.40
loop_
_atom_site_label
_atom_site_type_symbol
_atom_site_fract_x
_atom_site_fract_y
_atom_site_fract_z
I1 I 0.24440(5) 0.31328(1) 0.40487(1)
I2 I 0.86272(5) 0.53036(1) 0.10028(2)
I3 I 0.93744(5) 0.10926(1) 0.10705(2)
C1 C 0.4977(7) 0.3159(2) 0.2814(2)
C2 C 0.5671(8) 0.4023(2) 0.2415(2)
H1 H 0.49190 0.45930 0.26720
C3 C 0.7502(8) 0.4024(2) 0.1628(2)
C4 C 0.8563(8) 0.3198(2) 0.1230(2)
H2 H 0.97890 0.32110 0.06880
C5 C 0.7788(7) 0.2350(2) 0.1647(2)
C6 C 0.5981(8) 0.2319(2) 0.2443(2)
H3 H 0.54580 0.17360 0.27230
#END
