# ------------------------
# TONTO generated CIF file
# ------------------------

data_urea

_audit_creation_date               2007-9-15
_audit_creation_method             'Tonto v2.3 ($Rev: 3140 $)'

# --------------------
# Chemical information
# --------------------

_chemical_name_common              urea
_chemical_formula_moiety           'C H4 N2 O'
_chemical_formula_sum              'C H4 N2 O'
_chemical_formula_weight           60.06
_chemical_compound_source          'see text'
_chemical_absolute_configuration   unk

# --------------------
# Symmetry information
# --------------------

_symmetry_cell_setting             Tetragonal
_symmetry_space_group_name_H-M     'p -4 21 m'
_symmetry_space_group_name_Hall    'p -4 2ab'
_symmetry_Int_Tables_number        '113'

loop_
    _symmetry_equiv_pos_as_xyz
'x, y, z'
'y, -x, -z'
'x+1/2, -y+1/2, -z'
'-x, -y, z'
'y+1/2, x+1/2, z'
'-y, x, -z'
'-x+1/2, y+1/2, -z'
'-y+1/2, -x+1/2, z'

# ---------------------
# Unit cell information
# ---------------------

_cell_length_a   5.5780
_cell_length_b   5.5780
_cell_length_c   4.6860
_cell_angle_alpha  90.0000
_cell_angle_beta  90.0000
_cell_angle_gamma  90.0000
_cell_formula_units_Z 2

# ------------------
# Refinement details
# ------------------

_refine_special_details
;
  .  Hirshfeld atom refinement:
     .  Uses aspherical atomic scattering factors
        obtained from Hirshfeld partitioning of a
        gaussian quantum chemical wavefunction.
     .  Hirshfeld weight functions obtained from
        spherically averaged unrestricted atomic
        densities.
  .  Wavefunction type : rhf using cluster charges, radius=4.0 angstrom
  .  Gaussian basis set: DZP
  .  Refinement based on |F| with weight=1/sigma(|F|)
  .  Negative |F|^2 were pruned from the data
  .  |F| < 2.0 sigma(|F|) were pruned from the data
  .  Eigenvalues < 0.1E-04 removed from normal equations
  .  Reflection used in the refinement appear below
  .  Refined using the Tonto program:
     .  Version: 2.3 ($Rev: 3141 $)
     .  Platform: GNU-gfortran-on-LINUX
     .  Build-date: Sat Sep 15 17:11:28 WST 2007
;

_refine_ls_structure_factor_coef        F
_refine_ls_matrix_type                  full
_refine_ls_weighting_scheme             'w=1/\s(F)'
_refine_ls_hydrogen_treatment           refall
_refine_ls_extinction_method            none
_refine_ls_number_reflns                817
_refine_ls_number_parameters            27
_refine_ls_number_restraints            0
_refine_ls_number_constraints           19
_refine_ls_R_factor_all                 0.0166
_refine_ls_wR_factor_ref                0.0120
_refine_ls_goodness_of_fit_ref          8.3011
_refine_ls_shift/su_max                 ?
_refine_ls_shift/su_mean                ?

# ---------------------
# Coordinates and ADP's
# ---------------------

loop_
_atom_site_label
_atom_site_fract_x
_atom_site_fract_y
_atom_site_fract_z
_atom_site_adp_type
_atom_site_occupancy
O     0.00000(0)     0.50000(0)     0.59613(5)           Uani     1.00000000
N     0.14483(3)     0.64483(3)     0.17854(5)           Uani     1.00000000
C     0.00000(0)     0.50000(0)     0.32826(6)           Uani     1.00000000
H      0.2562(6)      0.7562(6)      0.2875(8)           Uani     1.00000000
H      0.1433(6)      0.6433(6)     -0.0344 (10)           Uani     1.00000000

loop_
_atom_site_aniso_label
_atom_site_aniso_U_11
_atom_site_aniso_U_22
_atom_site_aniso_U_33
_atom_site_aniso_U_12
_atom_site_aniso_U_13
_atom_site_aniso_U_23
O     0.01927(7)     0.01927(7)     0.00674(6)      0.0015(1)     0.00000(0)     0.00000(0)
N     0.02855(8)     0.02855(8)     0.00957(6)     -0.0147(1)     0.00006(5)     0.00006(5)
C     0.01477(6)     0.01477(6)     0.00661(7)     -0.0004(1)     0.00000(0)     0.00000(0)
H       0.062(3)       0.062(3)       0.027(3)      -0.036(4)      -0.010(2)      -0.010(2)
H       0.052(2)       0.052(2)       0.019(2)      -0.005(4)      -0.001(2)      -0.001(2)

# -----------------------
# Refined reflection data
# -----------------------

loop_
    _diffrn_refln_index_h
    _diffrn_refln_index_k
    _diffrn_refln_index_l
    _diffrn_refln_F_meas
    _diffrn_refln_F_sigma
        0       -2       -6     1.20060     0.00940
       -1       -1       -6     1.70720     0.00950
        0       -1       -6     0.72370     0.01890
        0        0       -6     3.93670     0.02330
       -4        0       -5     1.59880     0.01110
       -3        0       -5     0.60190     0.01380
       -2        0       -5     0.74390     0.01710
       -1        0       -5     4.32670     0.01110
        0        0       -5     6.93790     0.02560
        4       -1       -5     1.21980     0.01130
        3       -1       -5     1.28160     0.01080
        2       -1       -5     3.65150     0.00970
        1       -1       -5     4.08430     0.01340
       -4       -2       -5     2.28220     0.00690
       -3       -2       -5     2.73700     0.00960
       -2       -2       -5     3.09840     0.01320
        3       -3       -5     3.62330     0.01150
       -2       -5       -4     2.72780     0.01000
       -1       -5       -4     3.89620     0.01140
        0       -5       -4     4.20000     0.01330
        4       -4       -4     2.92090     0.01050
        3       -4       -4     0.55040     0.01420
        2       -4       -4     4.03610     0.01080
        1       -4       -4     6.49610     0.01330
        0       -4       -4     2.41050     0.00960
       -3       -3       -4     3.93580     0.01460
       -2       -3       -4     3.66150     0.00900
       -1       -3       -4     3.77390     0.00880
        0       -3       -4    10.14650     0.01830
        2       -2       -4     6.53000     0.01600
        1       -2       -4     6.66980     0.01060
        0       -2       -4     4.44530     0.00930
       -1       -1       -4     6.53090     0.01380
        0       -1       -4     1.47550     0.00940
        0        0       -4     5.40950     0.01630
       -6        0       -3     0.47720     0.01330
       -5        0       -3     2.89210     0.00970
       -4        0       -3     8.39930     0.01480
       -3        0       -3     3.37640     0.00790
       -2        0       -3     6.98000     0.00930
       -1        0       -3     9.27690     0.01000
        0        0       -3     3.65660     0.01080
        6       -1       -3     3.21410     0.01030
        5       -1       -3     3.16820     0.00890
        4       -1       -3     3.58830     0.00810
        3       -1       -3     8.05850     0.01070
        2       -1       -3     8.20630     0.00930
        1       -1       -3     3.37400     0.00810
       -6       -2       -3     2.46790     0.00800
       -5       -2       -3     4.57830     0.01100
       -4       -2       -3     2.03670     0.00800
       -3       -2       -3     5.01600     0.00860
       -2       -2       -3     5.19780     0.01080
        5       -3       -3     1.82170     0.00920
        4       -3       -3     4.06120     0.00960
        3       -3       -3     0.70920     0.02060
       -5       -4       -3     2.37360     0.00690
       -4       -4       -3     0.39670     0.01830
       -1       -7       -2     1.19110     0.00830
        0       -7       -2     2.24590     0.00790
        3       -6       -2     0.94920     0.01290
        2       -6       -2     1.67150     0.00950
        1       -6       -2     2.14830     0.00870
        0       -6       -2     1.58570     0.01060
       -5       -5       -2     2.21570     0.00980
       -4       -5       -2     0.82590     0.01490
       -3       -5       -2     1.48720     0.00960
       -2       -5       -2     2.69820     0.00810
       -1       -5       -2     2.84760     0.00780
        0       -5       -2     0.29680     0.02560
        4       -4       -2     1.98320     0.01190
        3       -4       -2     4.28780     0.00880
        2       -4       -2     2.31020     0.00710
        1       -4       -2     1.64220     0.00780
        0       -4       -2     2.74550     0.00760
       -3       -3       -2     2.79380     0.00970
       -2       -3       -2     3.28630     0.00630
       -1       -3       -2     3.82080     0.00600
        0       -3       -2     4.18260     0.00670
        2       -2       -2     7.33110     0.01060
        1       -2       -2     5.44600     0.00640
        0       -2       -2     2.85390     0.00570
       -1       -1       -2     7.20530     0.00810
        0       -1       -2    12.25860     0.01090
       -7        0       -1     2.89280     0.01140
       -6        0       -1     2.09490     0.00970
       -5        0       -1     0.32090     0.01650
       -4        0       -1     9.78510     0.01200
       -3        0       -1     9.57250     0.00890
       -2        0       -1    13.92620     0.00920
       -1        0       -1    12.12680     0.00720
        0        0       -1     3.62970     0.00670
        7       -1       -1     1.76900     0.00980
        6       -1       -1     2.36230     0.00840
        5       -1       -1     5.45640     0.00930
        4       -1       -1     3.38210     0.00630
        3       -1       -1    11.81690     0.00940
        2       -1       -1     6.97360     0.00530
        1       -1       -1    16.67490     0.01500
       -6       -2       -1     3.67540     0.01010
       -5       -2       -1     2.65910     0.00780
       -4       -2       -1     5.02280     0.00770
       -3       -2       -1     2.24390     0.00700
       -2       -2       -1    14.00140     0.01380
        6       -3       -1     0.93230     0.01320
        5       -3       -1     3.41110     0.00880
        4       -3       -1     4.49540     0.00830
        3       -3       -1     2.82360     0.00910
       -6       -4       -1     3.63740     0.00830
       -5       -4       -1     0.68500     0.01500
       -4       -4       -1     2.16070     0.01140
        5       -5       -1     3.91790     0.01710
       -2       -7        0     0.52080     0.00850
       -1       -7        0     5.55810     0.01570
        4       -6        0     1.55710     0.01050
        2       -6        0     4.79870     0.01100
        1       -6        0     2.28570     0.00950
        0       -6        0     7.77090     0.02590
       -5       -5        0     2.57640     0.01400
       -4       -5        0     1.68360     0.00940
       -3       -5        0     6.50950     0.01220
       -2       -5        0     4.58600     0.00880
       -1       -5        0     6.44080     0.01140
        4       -4        0     9.02470     0.02110
        3       -4        0     1.78930     0.00770
        2       -4        0     9.57160     0.01120
        1       -4        0     2.64620     0.00710
        0       -4        0     2.32580     0.01210
       -3       -3        0    14.67380     0.02060
       -2       -3        0     4.13210     0.00570
       -1       -3        0     5.34470     0.00630
        2       -2        0    14.93500     0.01370
        1       -2        0    14.91900     0.00930
        0       -2        0    12.36770     0.01190
       -2      -11       -5     0.60520     0.01210
        5      -10       -5     0.59780     0.01390
        4      -10       -5     0.62690     0.01410
        3      -10       -5     0.87250     0.01800
       -6       -9       -5     0.66670     0.01470
       -5       -9       -5     0.79720     0.01780
        7       -8       -5     0.79910     0.01720
       10       -2       -5     0.23750     0.03130
      -11        0       -4     1.23190     0.01640
       11       -1       -4     0.60690     0.01130
      -11       -2       -4     0.63940     0.01680
      -11       -3       -4     0.72710     0.01880
      -11       -4       -4     0.51800     0.01230
       10       -5       -4     0.61010     0.01280
      -10       -6       -4     0.47720     0.01330
       -9       -6       -4     0.70000     0.01540
        9       -7       -4     0.53860     0.01270
       -8       -8       -4     0.58440     0.01830
        2      -12       -3     0.40900     0.01540
        1      -12       -3     0.52560     0.01210
        0      -12       -3     0.57670     0.01440
       -5      -11       -3     0.71470     0.01640
       -4      -11       -3     0.56110     0.01220
       -3      -11       -3     0.29850     0.02540
        7      -10       -3     0.55840     0.01310
        6      -10       -3     0.91840     0.01710
       -8       -9       -3     0.61420     0.01590
       -7       -9       -3     0.98750     0.01640
        8       -8       -3     0.96830     0.02370
      -12       -2       -2     0.34750     0.02740
       10       -7       -2     0.56370     0.01300
       -9       -8       -2     0.62770     0.01330
        4      -12       -1     0.53120     0.01380
        3      -12       -1     0.29680     0.02250
        2      -12       -1     0.59200     0.01240
        1      -12       -1     0.28140     0.02690
        0      -12       -1     0.60360     0.01780
       -6      -11       -1     0.29010     0.02300
       -5      -11       -1     0.71270     0.01440
        7      -10       -1     0.35320     0.02310
       -8       -9       -1     0.40540     0.01560
      -12        0        0     0.98800     0.01840
      -12       -2        0     1.07260     0.01560
      -12       -4        0     0.67700     0.01160
       11       -5        0     0.78530     0.01750
      -11       -6        0     0.49950     0.01370
       10       -7        0     0.59860     0.01470
       -9       -8        0     0.75190     0.01560
        9       -9        0     0.33150     0.02590
        1       -3      -11     2.30660     0.01430
        0       -3      -11     0.63400     0.01620
       -2       -2      -11     1.65210     0.01880
       -1       -2      -11     1.36860     0.01400
        0       -2      -11     2.06440     0.01600
        1       -1      -11     1.27230     0.01970
        0       -1      -11     1.18610     0.01660
        6        0      -10     0.85130     0.02010
        5        0      -10     0.72160     0.02030
       -5       -1      -10     1.23950     0.01430
        6       -2      -10     0.90760     0.01730
        5       -2      -10     0.34180     0.01970
       -5       -3      -10     0.91840     0.01710
       -4       -3      -10     0.49850     0.01370
        5       -4      -10     0.49750     0.01370
        4       -4      -10     0.85130     0.02580
       -2       -8       -9     0.43480     0.01460
       -1       -8       -9     0.46140     0.01370
        4       -7       -9     0.73250     0.01670
        3       -7       -9     0.75250     0.01690
        2       -7       -9     0.52370     0.01400
        1       -7       -9     0.31620     0.01970
       -5       -6       -9     0.86340     0.01700
       -4       -6       -9     0.78280     0.01750
        5       -5       -9     0.70500     0.02210
        9        0       -8     1.14490     0.01720
        9       -2       -8     1.10660     0.01550
       -9       -3       -8     0.35180     0.01920
       -8       -3       -8     1.43150     0.01380
        8       -4       -8     0.22250     0.03310
       -8       -5       -8     0.93180     0.01680
       -7       -5       -8     0.29350     0.02580
        7       -6       -8     0.83480     0.01820
        6       -6       -8     0.47510     0.01940
       -3      -10       -7     1.23270     0.01480
       -1      -10       -7     0.70290     0.01530
        5       -9       -7     0.52180     0.01310
        4       -9       -7     1.41310     0.01390
       -7       -8       -7     1.11330     0.01550
       -6       -8       -7     0.55580     0.01410
        7       -7       -7     0.52930     0.01840
       11        0       -6     0.36560     0.02230
       11       -2       -6     0.31620     0.02410
      -11       -3       -6     0.38790     0.01620
       10       -4       -6     0.55130     0.01330
      -10       -5       -6     0.29520     0.03180
        9       -6       -6     0.39800     0.01590
       -8       -7       -6     0.37890     0.02160
       -1      -12       -5     0.39800     0.01700
        4      -11       -5     0.50150     0.01360
        3      -11       -5     0.42210     0.01500
        8       -9       -5     0.44160     0.01430
       12        0       -4     0.44160     0.01650
      -12       -1       -4     0.60520     0.01290
       12       -2       -4     0.53400     0.01280
      -12       -3       -4     0.51800     0.01320
       12       -4       -4     0.37490     0.01680
      -11       -5       -4     0.46990     0.01350
       11       -6       -4     0.92750     0.01740
      -10       -7       -4     1.12220     0.01530
        9       -8       -4     1.18230     0.01540
        1      -13       -3     0.30830     0.02170
        0      -13       -3     0.34180     0.02380
       -5      -12       -3     0.36010     0.01880
       -4      -12       -3     0.56020     0.01310
       -3      -12       -3     0.41740     0.01510
        7      -11       -3     0.71130     0.01720
        6      -11       -3     0.48130     0.01320
       -8      -10       -3     0.85070     0.01730
        9       -9       -3     0.87930     0.02440
      -12       -5       -2     0.30670     0.02480
       11       -6       -2     0.44940     0.01410
      -11       -7       -2     0.29850     0.02240
       10       -8       -2     0.40050     0.01580
       -9       -9       -2     0.39670     0.02300
        3      -13       -1     0.43260     0.01460
        1      -13       -1     0.38790     0.01620
        0      -13       -1     0.28320     0.03610
       -6      -12       -1     0.51700     0.01230
        7      -11       -1     0.63320     0.01470
       -8      -10       -1     0.70780     0.01660
        9       -9       -1     0.80340     0.02250
      -13       -1        0     0.81200     0.01750
      -13       -3        0     0.48230     0.01420
      -12       -5        0     0.34320     0.02370
       12       -6        0     0.38020     0.01660
      -11       -7        0     0.34900     0.02200
       10       -8        0     0.31460     0.02570
        5        0      -11     0.66450     0.01620
        4        0      -11     2.42830     0.01710
       -5       -1      -11     1.31620     0.01380
       -4       -1      -11     0.74790     0.01570
        5       -2      -11     1.10980     0.01460
        4       -2      -11     1.08490     0.01540
        3       -2      -11     0.96670     0.01620
       -4       -3      -11     1.01660     0.01550
       -3       -3      -11     0.55400     0.02020
        4       -4      -11     0.58950     0.01980
        3       -7      -10     0.51220     0.01240
        2       -7      -10     0.61660     0.01190
        1       -7      -10     0.63480     0.01620
        0       -7      -10     0.30510     0.03240
       -5       -6      -10     0.69360     0.01620
       -4       -6      -10     0.62300     0.01410
       -3       -6      -10     0.87590     0.01790
        5       -5      -10     0.89490     0.02460
        9        0       -9     0.34030     0.02390
       -9       -1       -9     0.26320     0.02510
        9       -2       -9     0.46990     0.01350
       -8       -3       -9     0.60360     0.01300
       -5       -8       -9     0.28840     0.02630
       -3      -10       -8     0.53490     0.01280
       -2      -10       -8     0.28840     0.02310
       -1      -10       -8     0.93660     0.01680
        5       -9       -8     0.60770     0.01450
        4       -9       -8     0.78090     0.01630
       -7       -8       -8     0.59450     0.01240
       -6       -8       -8     0.73920     0.01590
        7       -7       -8     0.82950     0.02300
       11        0       -7     0.51510     0.01420
       11       -2       -7     0.85190     0.01780
       10       -4       -7     0.27610     0.02730
      -10       -5       -7     0.87650     0.01730
        9       -6       -7     0.96210     0.01680
       -7      -10       -6     0.42910     0.01590
        8       -9       -6     0.53020     0.01290
      -12       -3       -5     0.37490     0.02060
       11       -6       -5     0.30670     0.02480
      -10       -7       -5     0.36420     0.01860
        2      -13       -4     0.39670     0.01830
        1      -13       -4     0.35460     0.01770
        0      -13       -4     0.32700     0.02200
       -6      -12       -4     0.27250     0.02770
       -5      -12       -4     0.73520     0.01470
        7      -11       -4     0.35040     0.01790
       -9      -10       -4     0.41740     0.01630
       -8      -10       -4     0.40540     0.01560
        9       -9       -4     0.46560     0.01880
       13       -2       -3     0.30010     0.02530
      -13       -3       -3     0.46240     0.01370
       13       -4       -3     0.25560     0.02930
       12       -6       -3     0.60690     0.01290
       11       -8       -3     0.25560     0.03620
      -10       -9       -3     0.26510     0.02840
       14       -2       -1     0.30990     0.02460
      -13       -5       -1     0.40290     0.01570
      -11       -9       -1     0.30990     0.02160
       10      -10       -1     0.34900     0.03120
       -2      -14        0     0.41380     0.01530
        0      -14        0     0.57240     0.01370
        5      -13        0     0.35040     0.01930
        9      -11        0     0.72300     0.01620
      -10      -10        0     0.76230     0.02300
        0       -4      -12     0.47510     0.01540
        3       -3      -12     1.39330     0.01840
        2       -3      -12     0.63480     0.01390
        1       -3      -12     0.76100     0.01610
       -2       -2      -12     1.31100     0.01870
       -1       -2      -12     0.64170     0.01520
        0       -2      -12     1.02300     0.01730
        1       -1      -12     1.55740     0.01860
        0       -1      -12     1.11200     0.01680
        0        0      -12     1.93320     0.02670
        7        0      -11     0.68650     0.01780
        6        0      -11     0.65850     0.01490
       -7       -1      -11     0.59280     0.01160
       -6       -1      -11     0.84310     0.01740
        6       -2      -11     1.07440     0.01510
       -6       -3      -11     0.47090     0.01350
       -5       -3      -11     0.89600     0.01750
        5       -4      -11     0.68650     0.01500
       -5       -5      -11     1.17770     0.02000
        0       -9      -10     0.43600     0.01560
       -4       -8      -10     0.40660     0.01440
       -3       -8      -10     0.62850     0.01400
       -2       -8      -10     0.61660     0.01270
        0       -8      -10     0.49550     0.01480
        5       -7      -10     0.39170     0.01610
        4       -7      -10     0.87310     0.01680
       -6       -6      -10     0.44390     0.01960
       10        0       -9     0.31460     0.03150
      -10       -1       -9     0.26510     0.02840
        8       -6       -9     0.35600     0.01900
       -7       -7       -9     0.40420     0.02150
        3      -11       -8     0.33590     0.02000
        2      -11       -8     0.52740     0.01300
        0      -11       -8     0.70070     0.01740
       -5      -10       -8     0.51220     0.01340
       -4      -10       -8     0.50730     0.01250
        6       -9       -8     0.62300     0.01180
      -12       -1       -7     0.59780     0.01310
      -12       -3       -7     0.53120     0.01380
       11       -4       -7     0.72710     0.01750
       -3      -12       -6     0.26320     0.03360
        6      -11       -6     0.39800     0.01590
       13        0       -5     0.30510     0.02640
      -11       -7       -5     0.28490     0.03130
        0      -14       -4     0.27610     0.03540
        4      -13       -4     0.54500     0.01350
       -7      -12       -4     0.35600     0.01630
        8      -11       -4     0.39800     0.01700
      -10      -10       -4     0.36290     0.02380
       14       -2       -3     0.29680     0.02560
      -13       -5       -3     0.42450     0.01490
      -12       -7       -3     0.24370     0.02690
       -8      -12       -2     0.29180     0.03060
        9      -11       -2     0.24570     0.03740
       14       -4       -1     0.26700     0.03480
      -13       -7       -1     0.22020     0.03340
       12       -8       -1     0.24170     0.03080
       11      -10       -1     0.32850     0.02050
       -4      -14        0     0.26700     0.02480
        7      -13        0     0.50730     0.01350
       -8      -12        0     0.65090     0.01350
        1       -6      -12     0.55840     0.01140
        0       -6      -12     1.00040     0.01470
       -3       -5      -12     0.83540     0.01530
       -2       -5      -12     0.63400     0.01160
       -1       -5      -12     0.89440     0.01480
        0       -5      -12     0.28840     0.02630
        0        0      -13     0.41980     0.02740
        4       -2      -12     1.09850     0.01430
       -4       -3      -12     0.84900     0.01730
        4       -4      -12     1.07530     0.02050
       -2       -8      -11     0.87820     0.01620
       -1       -8      -11     0.52270     0.01220
        0       -8      -11     0.53490     0.01370
        4       -7      -11     0.37360     0.01560
        3       -7      -11     1.26520     0.01320
        2       -7      -11     0.46670     0.01260
       -5       -6      -11     0.52270     0.01220
       -4       -6      -11     1.29770     0.01370
       -9       -1      -10     0.44270     0.01430
        9       -2      -10     0.32850     0.02050
       -9       -3      -10     0.29350     0.02580
       -7       -7      -10     0.45270     0.01820
      -12       -1       -8     0.42800     0.01370
       12       -2       -8     0.24970     0.02810
       11       -4       -8     0.38540     0.01760
      -10       -7       -8     0.57420     0.01190
        9       -8       -8     0.60520     0.01370
        0      -13       -7     0.44500     0.01640
       -8      -10       -7     0.22690     0.02680
      -14       -3       -4     0.32700     0.02760
       13       -6       -4     0.28670     0.02640
       12       -8       -4     0.30670     0.02480
      -11       -9       -4     0.36010     0.02140
       -4      -14       -3     0.32850     0.02330
       -9      -12       -3     0.25950     0.03400
       10      -11       -3     0.27970     0.03180
       11      -10       -2     0.23550     0.03150
        8      -13       -1     0.23750     0.03130
       -9      -12       -1     0.24770     0.03720
       14       -6        0     0.40540     0.01440
        3        0      -13     0.80160     0.01950
       -4       -1      -13     0.48230     0.01220
       -2       -1      -13     0.45600     0.01280
       -1       -1      -13     0.47610     0.01840
        2       -2      -13     0.61500     0.01980
        1       -7      -12     0.80400     0.01590
        0       -7      -12     0.54950     0.01860
       -4       -6      -12     0.42100     0.01270
       -2       -6      -12     0.73520     0.01730
        5       -5      -12     0.61090     0.02150
        4       -5      -12     0.33450     0.01590
        9        0      -11     0.30670     0.02030
       -9       -1      -11     0.67260     0.01460
        9       -2      -11     0.36560     0.01460
       -8       -3      -11     0.37630     0.01550
        8       -4      -11     0.69080     0.01490
       -7       -5      -11     0.68570     0.01570
        7       -6      -11     0.43710     0.01230
        6       -6      -11     0.60600     0.02250
       -4      -10      -10     0.31310     0.02440
       -1      -10      -10     0.41740     0.01970
        5       -9      -10     0.43260     0.01790
       -6       -8      -10     0.48950     0.01790
       -4        0       -7     0.39420     0.01600
       -3        0       -7     0.70070     0.01610
       -2        0       -7     0.51510     0.01230
       -1        0       -7     6.51580     0.02560
        0        0       -7     0.51120     0.02460
        3       -1       -7     1.22790     0.01240
        2       -1       -7     3.25500     0.01310
        1       -1       -7     2.36510     0.01540
       -3       -2       -7     3.97950     0.01600
       -2       -2       -7     3.14710     0.01830
       -1       -4       -7     1.82760     0.00950
       -3       -5       -6     0.74860     0.01510
       -2       -5       -6     2.46410     0.01180
       -1       -5       -6     0.86680     0.01580
        0       -5       -6     1.39650     0.01380
        4       -4       -6     1.59140     0.01670
        3       -4       -6     1.06190     0.01340
        2       -4       -6     1.05440     0.01350
        1       -4       -6     2.37530     0.01080
        0       -4       -6     2.76510     0.01300
       -3       -3       -6     2.34070     0.01520
       -2       -3       -6     1.72820     0.01030
       -1       -3       -6     2.26610     0.01000
        0       -3       -6     3.26800     0.01330
        2       -2       -6     1.64640     0.01440
        1       -2       -6     3.69660     0.01190
       -7        0       -5     2.48410     0.01410
       -6        0       -5     2.07520     0.01260
       -5        0       -5     1.36030     0.01270
        7       -1       -5     1.42290     0.01180
        6       -1       -5     2.51640     0.01140
        5       -1       -5     1.82570     0.01000
       -6       -2       -5     1.23390     0.01240
       -5       -2       -5     3.00000     0.01150
        6       -3       -5     0.56640     0.01210
        5       -3       -5     1.54170     0.01090
        4       -3       -5     3.60800     0.01250
       -5       -4       -5     1.59690     0.01140
       -4       -4       -5     2.34000     0.01520
        5       -5       -5     1.28040     0.01800
       -3       -7       -4     1.34300     0.01250
       -2       -7       -4     2.85960     0.01230
       -1       -7       -4     2.12560     0.01090
        0       -7       -4     0.42100     0.01500
        5       -6       -4     3.02550     0.01350
        4       -6       -4     1.83840     0.01130
        3       -6       -4     3.86310     0.01410
        2       -6       -4     2.72670     0.01110
        1       -6       -4     1.69240     0.01020
        0       -6       -4     2.76130     0.01220
       -5       -5       -4     2.61380     0.01640
       -4       -5       -4     2.88050     0.01150
       -3       -5       -4     2.89060     0.01060
       -8        0       -3     0.88380     0.01770
       -7        0       -3     2.27280     0.01170
        8       -1       -3     1.76540     0.01120
        7       -1       -3     0.77200     0.01520
       -8       -2       -3     2.24610     0.01160
       -7       -2       -3     1.63460     0.01060
        8       -3       -3     1.34340     0.01250
        7       -3       -3     3.70940     0.01400
        6       -3       -3     1.67970     0.01030
       -7       -4       -3     1.29000     0.01260
       -6       -4       -3     3.81040     0.01350
        6       -5       -3     1.99170     0.01120
        5       -5       -3     3.17480     0.01680
       -6       -6       -3     1.31620     0.01830
        3       -8       -2     0.92490     0.01540
        2       -8       -2     1.23710     0.01230
        1       -8       -2     0.78220     0.01380
        0       -8       -2     0.89490     0.01640
       -5       -7       -2     0.31150     0.03750
       -4       -7       -2     1.33530     0.01220
       -3       -7       -2     1.19360     0.01240
       -2       -7       -2     0.40290     0.01330
        6       -6       -2     0.65090     0.01870
        5       -6       -2     1.24030     0.01230
        4       -6       -2     1.60590     0.01040
       -8        0       -1     1.49480     0.01250
        9       -1       -1     1.88710     0.01150
        8       -1       -1     0.97340     0.01410
       -9       -2       -1     0.47720     0.01230
       -8       -2       -1     2.53710     0.01130
        8       -3       -1     0.61580     0.01120
        7       -3       -1     3.24330     0.01160
       -8       -4       -1     1.69470     0.01160
       -7       -4       -1     1.15220     0.01240
        7       -5       -1     1.76760     0.01140
        6       -5       -1     0.91840     0.01440
       -7       -6       -1     1.47180     0.01240
       -6       -6       -1     1.63580     0.01630
       -2       -9        0     1.17050     0.01300
       -1       -9        0     1.87810     0.01130
        4       -8        0     2.01980     0.01150
        3       -8        0     1.05250     0.01400
        2       -8        0     2.14230     0.01080
        1       -8        0     1.21450     0.01220
        0       -8        0     4.10890     0.01620
       -6       -7        0     0.71330     0.01440
       -5       -7        0     2.39150     0.01160
       -4       -7        0     0.99200     0.01390
       -3       -7        0     1.16380     0.01230
        6       -6        0     2.88970     0.01760
        5       -6        0     2.02280     0.01050
       -2       -4       -8     1.35190     0.01310
       -1       -4       -8     3.15130     0.01550
        0       -4       -8     1.04830     0.01730
        3       -3       -8     2.35060     0.01870
        2       -3       -8     2.63080     0.01350
        1       -3       -8     0.68210     0.01290
        0       -3       -8     3.90980     0.02020
       -2       -2       -8     1.34530     0.01790
       -1       -2       -8     3.82830     0.01680
        1       -1       -8     2.10030     0.01670
        0       -1       -8     2.45520     0.01430
        0        0       -8     3.80350     0.03250
        5        0       -7     2.49860     0.01480
       -6       -1       -7     3.27260     0.01580
       -5       -1       -7     1.72600     0.01200
        6       -2       -7     1.12920     0.01440
        5       -2       -7     3.17060     0.01500
        4       -2       -7     1.28970     0.01260
       -6       -3       -7     1.32450     0.01230
       -5       -3       -7     0.88880     0.01600
       -4       -3       -7     4.86320     0.02050
       -3       -3       -7     0.38790     0.02710
        5       -4       -7     2.23680     0.01320
        4       -4       -7     0.33890     0.03210
        3       -7       -6     1.15520     0.01450
        2       -7       -6     0.96770     0.01570
        1       -7       -6     1.00090     0.01470
       -5       -6       -6     1.43430     0.01310
       -4       -6       -6     1.13230     0.01430
       -3       -6       -6     1.31510     0.01310
       -2       -6       -6     0.55220     0.01240
       -1       -6       -6     1.37220     0.01220
        0       -6       -6     1.38590     0.01420
        5       -5       -6     0.89550     0.02180
        4       -5       -6     1.24670     0.01300
        8        0       -5     0.94130     0.01770
       -8       -1       -5     1.39230     0.01240
        8       -2       -5     0.74460     0.01510
        7       -2       -5     0.92160     0.01540
       -8       -3       -5     0.71470     0.01440
       -7       -3       -5     0.79850     0.01660
        7       -4       -5     0.58100     0.01100
        6       -4       -5     0.92490     0.01590
       -7       -5       -5     0.27430     0.03240
       -6       -5       -5     1.22790     0.01320
        6       -6       -5     0.53020     0.01650
        3       -9       -4     1.01810     0.01590
        2       -9       -4     1.75210     0.01240
        1       -9       -4     1.27920     0.01350
        0       -9       -4     1.95210     0.01410
       -5       -8       -4     0.87930     0.01620
       -4       -8       -4     1.05110     0.01500
       -3       -8       -4     2.62740     0.01330
       -2       -8       -4     1.73400     0.01170
       -1       -8       -4     1.69150     0.01170
        0       -8       -4     1.63920     0.01350
        6       -7       -4     0.59280     0.01080
        5       -7       -4     1.18440     0.01370
        4       -7       -4     3.37150     0.01490
       -6       -6       -4     1.38080     0.01820
       10        0       -3     1.75300     0.01460
        9        0       -3     0.99990     0.01770
      -10       -1       -3     0.77580     0.01450
       -9       -1       -3     1.75210     0.01180
        9       -2       -3     1.36930     0.01260
       -9       -3       -3     1.05910     0.01490
        9       -4       -3     1.17180     0.01430
        8       -4       -3     1.70230     0.01220
       -8       -5       -3     1.47210     0.01310
       -7       -5       -3     1.67380     0.01210
        7       -6       -3     1.45250     0.01290
       -2      -10       -2     0.29010     0.04440
       -1      -10       -2     0.44830     0.01410
        5       -9       -2     0.98050     0.01550
        4       -9       -2     0.68860     0.01280
        3       -9       -2     0.43480     0.01350
        2       -9       -2     0.63790     0.01150
        1       -9       -2     0.79290     0.01420
        0       -9       -2     0.30180     0.02520
       -6       -8       -2     1.08310     0.01540
       -5       -8       -2     0.84070     0.01520
        7       -7       -2     1.16590     0.02020
        6       -7       -2     1.03970     0.01470
       10        0       -1     1.49020     0.01450
       10       -2       -1     1.02250     0.01540
      -10       -3       -1     0.92590     0.01640
       -9       -3       -1     1.26560     0.01320
        9       -4       -1     1.02440     0.01530
       -9       -5       -1     1.15480     0.01450
       -8       -5       -1     1.15050     0.01370
        8       -6       -1     1.21410     0.01420
       -8       -7       -1     0.74060     0.01650
       -7       -7       -1     1.12700     0.02000
       -3      -10        0     0.25750     0.03590
       -2      -10        0     1.81920     0.01250
       -1      -10        0     0.31310     0.02140
        0      -10        0     0.95490     0.01850
        5       -9        0     2.48450     0.01390
        4       -9        0     0.64020     0.01450
        3       -9        0     2.27440     0.01240
       -7       -8        0     0.37630     0.02050
       -6       -8        0     2.87390     0.01460
       -5       -8        0     0.98400     0.01550
        2       -4       -9     0.61900     0.01270
        1       -4       -9     1.35410     0.01350
        0       -4       -9     1.44740     0.01530
       -3       -3       -9     0.98700     0.02280
       -2       -3       -9     0.81930     0.01730
       -1       -3       -9     1.20840     0.01380
        0       -3       -9     2.04570     0.01520
        2       -2       -9     1.27920     0.01960
        1       -2       -9     1.80230     0.01260
        0       -2       -9     0.59620     0.01560
       -1       -1       -9     1.13490     0.01990
        0        0       -9     1.89390     0.02490
       -6        0       -8     1.52010     0.01520
       -5        0       -8     2.42050     0.01590
        6       -1       -8     1.80200     0.01310
        5       -1       -8     0.90540     0.01680
       -6       -2       -8     0.77070     0.01530
       -5       -2       -8     2.54940     0.01410
        6       -3       -8     2.06400     0.01360
        5       -3       -8     1.02340     0.01580
        4       -3       -8     1.72800     0.01260
       -5       -4       -8     1.88500     0.01310
       -4       -4       -8     1.70980     0.01790
        2       -8       -7     0.90210     0.01690
        1       -8       -7     1.86120     0.01330
       -4       -7       -7     0.66450     0.01470
       -3       -7       -7     0.55750     0.01230
       -2       -7       -7     1.59570     0.01270
       -1       -7       -7     0.27790     0.03360
        0       -7       -7     3.42830     0.01990
        5       -6       -7     1.12130     0.01490
        4       -6       -7     0.94920     0.01600
       -5       -5       -7     1.54660     0.01810
       -9        0       -6     0.66150     0.01550
       -8        0       -6     0.70430     0.01600
        8       -1       -6     0.87650     0.01730
       -9       -2       -6     0.90100     0.01690
       -8       -2       -6     0.50340     0.01260
        8       -3       -6     1.04020     0.01510
       -8       -4       -6     0.29010     0.04290
       -7       -4       -6     1.20180     0.01390
       -7       -6       -6     0.56280     0.01300
        1      -10       -5     0.35460     0.01770
       -4       -9       -5     1.01080     0.01600
       -3       -9       -5     0.33740     0.01860
       -2       -9       -5     0.87870     0.01730
       -1       -9       -5     0.50340     0.01260
        0       -9       -5     0.58440     0.01420
        6       -8       -5     1.00190     0.01570
        5       -8       -5     1.14830     0.01460
       -7       -7       -5     1.04360     0.02250
       -6       -7       -5     1.35410     0.01380
      -10        0       -4     0.67780     0.01590
       10       -1       -4     1.63100     0.01300
      -10       -2       -4     0.86740     0.01640
       10       -3       -4     0.55310     0.01150
      -10       -4       -4     0.99650     0.01580
       -9       -4       -4     0.72850     0.01480
        9       -5       -4     1.25110     0.01460
       -8       -6       -4     1.39400     0.01380
        8       -7       -4     0.58610     0.01340
        7       -7       -4     1.37760     0.02000
       -2      -11       -3     0.70570     0.01530
       -1      -11       -3     0.97180     0.01620
        0      -11       -3     0.56550     0.01380
        5      -10       -3     0.68720     0.01430
        3      -10       -3     0.91410     0.01610
        2      -10       -3     0.91410     0.01610
       -6       -9       -3     0.86680     0.01640
       -5       -9       -3     0.25170     0.03670
        7       -8       -3     0.87650     0.01730
      -11        0       -2     0.28320     0.02830
       11       -3       -2     0.47410     0.01340
       10       -3       -2     0.56200     0.01130
      -10       -4       -2     0.70140     0.01330
       10       -5       -2     0.31150     0.03030
       -9       -6       -2     0.38410     0.01640
        8       -7       -2     0.46140     0.01370
       -8       -8       -2     0.39170     0.02210
       -4      -11       -1     0.47510     0.01340
       -3      -11       -1     0.65400     0.01270
       -2      -11       -1     0.48850     0.01300
       -1      -11       -1     0.95070     0.01650
        6      -10       -1     0.83070     0.01650
        5      -10       -1     0.57930     0.01180
        4      -10       -1     0.77390     0.01520
       -7       -9       -1     0.94130     0.01670
       -6       -9       -1     0.64020     0.01380
        8       -8       -1     0.92110     0.02230
       11       -1        0     1.14010     0.01420
      -11       -2        0     0.34030     0.02250
       11       -3        0     1.65450     0.01340
      -10       -4        0     2.23460     0.01550
       10       -5        0     0.24170     0.03080
      -10       -6        0     0.76040     0.01480
       -9       -6        0     0.41620     0.01630
        9       -7        0     0.89160     0.01600
       -8       -8        0     0.93290     0.02410
       -4        0      -10     0.64410     0.01740
       -3        0      -10     2.17850     0.01630
       -2        0      -10     1.02680     0.01820
       -1        0      -10     0.42910     0.01700
        0        0      -10     1.68740     0.02620
        4       -1      -10     1.33380     0.01400
        3       -1      -10     1.02780     0.01530
        2       -1      -10     1.08630     0.01490
        1       -1      -10     1.78790     0.01850
       -4       -2      -10     1.18610     0.01450
       -3       -2      -10     0.34320     0.02370
       -2       -2      -10     1.89650     0.01900
        3       -3      -10     1.21490     0.01980
        3       -6       -9     0.76560     0.01470
        2       -6       -9     0.49850     0.01270
        1       -6       -9     0.60850     0.01290
        0       -6       -9     0.51220     0.01430
       -4       -5       -9     0.67190     0.01170
       -3       -5       -9     0.42100     0.01500
       -2       -5       -9     1.15560     0.01450
       -1       -5       -9     0.76360     0.01410
        0       -5       -9     0.73320     0.01930
        4       -4       -9     0.66750     0.01610
        3       -4       -9     0.45380     0.01400
       -8        0       -8     0.80650     0.01940
       -7        0       -8     1.10120     0.01700
        8       -1       -8     1.27540     0.01430
        7       -1       -8     1.10350     0.01510
       -8       -2       -8     0.34320     0.01960
       -7       -2       -8     1.69910     0.01310
        7       -3       -8     0.42450     0.01490
       -7       -4       -8     1.72970     0.01370
       -6       -4       -8     0.39550     0.01590
        6       -5       -8     1.75550     0.01350
        5       -5       -8     0.49750     0.01860
       -2       -9       -7     1.07850     0.01550
       -1       -9       -7     0.56460     0.01300
        0       -9       -7     1.06380     0.01750
        5       -8       -7     1.52240     0.01360
        3       -8       -7     0.89050     0.01710
       -6       -7       -7     1.86730     0.01370
        6       -6       -7     0.39800     0.02180
      -10        0       -6     0.42680     0.01710
       10       -1       -6     0.57160     0.01110
       10       -3       -6     0.32390     0.02920
       -9       -4       -6     0.53210     0.01200
        9       -5       -6     0.61090     0.01200
        8       -5       -6     0.76430     0.01670
       -8       -6       -6     0.76040     0.01610
        7       -7       -6     0.92860     0.02420
        0        0       -2    11.50040     0.03520
       -1       -1        0    31.44960     0.02990
